#Run DFT geometry optimization
! wB97X-D3 def2-TZVP TIGHTSCF Grid5 FinalGrid6 Opt CHELPG PAL4

%base "9_geo_opt"
%geom MaxIter 500
end

%geom
  Constraints
    { B 0 1 C }
  end
end


* xyz 0 1
  C                    3.011700             -1.180882            0.598570            
  O                    4.394281             -1.128065            0.874229            
  H                    4.771804             -0.379037            0.412415            
  H                    2.806826             -1.318950            -0.469272           
  H                    2.612024             -2.040250            1.135977            
  H                    2.485149             -0.284476            0.945737            
*
