     # Non-bonded interactions (pair-wise)
     pair_coeff           1          1          lj/cut/coul/long      0.024470             2.445635            
     pair_coeff           1          2          lj/cut/coul/long      0.015535             2.415924            
     pair_coeff           1          3          lj/cut/coul/long      0.004946             2.450156            
     pair_coeff           1          4          lj/cut/coul/long      0.037139             3.059716            
     pair_coeff           1          5          lj/cut/coul/long      0.038950             3.102798            
     pair_coeff           1          6          lj/cut/coul/long      0.044495             2.939095            
     pair_coeff           2          2          lj/cut/coul/long      0.009920             2.384265            
     pair_coeff           2          3          lj/cut/coul/long      0.003138             2.420728            
     pair_coeff           2          4          lj/cut/coul/long      0.022322             3.050239            
     pair_coeff           2          5          lj/cut/coul/long      0.023375             3.093967            
     pair_coeff           2          6          lj/cut/coul/long      0.026882             2.927483            
     pair_coeff           3          3          lj/cut/coul/long      0.001000             2.454636            
     pair_coeff           3          4          lj/cut/coul/long      0.007569             3.061196            
     pair_coeff           3          5          lj/cut/coul/long      0.007940             3.104179            
     pair_coeff           3          6          lj/cut/coul/long      0.009061             2.940904            
     pair_coeff           4          4          lj/cut/coul/long      0.124281             3.355370            
     pair_coeff           4          5          lj/cut/coul/long      0.134956             3.382937            
     pair_coeff           4          6          lj/cut/coul/long      0.133421             3.282595            
     pair_coeff           5          5          lj/cut/coul/long      0.146885             3.409424            
     pair_coeff           5          6          lj/cut/coul/long      0.143912             3.313269            
     pair_coeff           6          6          lj/cut/coul/long      0.146123             3.200727            

     # Stretching interactions
     bond_coeff           1           377.780519           1.092523            
     bond_coeff           2           341.206424           1.106673            
     bond_coeff           3           492.913538           1.014179            
     bond_coeff           4           304.857493           1.518315            
     bond_coeff           5           364.164759           1.452872            

     # Bending interactions
     angle_coeff          1           43.215261            107.986516          
     angle_coeff          2           21.052866            109.598975          
     angle_coeff          3           44.476883            107.563970          
     angle_coeff          4           49.909141            110.166255          
     angle_coeff          5           46.411225            109.789851          
     angle_coeff          6           85.272597            118.219606          
     angle_coeff          7           55.967696            112.455346          
     angle_coeff          8           75.846731            108.946993          

     # Dihedral interactions
     dihedral_coeff       1          opls                  0.316314             0.319045            -0.421681             0.080321            
     dihedral_coeff       2          opls                  0.341138            -0.188746             1.649472            -0.061017            
     dihedral_coeff       3          opls                  0.840630            -1.764567            -0.246332            -0.865300            
     dihedral_coeff       4          opls                  0.256698             1.333199            -3.027508             0.023042            
     dihedral_coeff       5          opls                  1.678364            -1.048625             1.211668            -1.388152            
     dihedral_coeff       6          opls                 -2.088346            -0.220028            -0.190311             0.326366            
     dihedral_coeff       7          opls                  1.747185            -1.226403             1.968798            -2.406907            
