     # Non-bonded interactions (pair-wise)
     pair_coeff           1          1          lj/cut/coul/long      0.321512             3.520465            
     pair_coeff           1          2          lj/cut/coul/long      0.022183             3.200133            
     pair_coeff           1          3          lj/cut/coul/long      0.053464             3.192554            
     pair_coeff           1          4          lj/cut/coul/long      0.225018             3.463640            
     pair_coeff           1          5          lj/cut/coul/long      0.243255             3.483577            
     pair_coeff           2          2          lj/cut/coul/long      0.003796             2.500290            
     pair_coeff           2          3          lj/cut/coul/long      0.009617             2.473717            
     pair_coeff           2          4          lj/cut/coul/long      0.016861             3.105458            
     pair_coeff           2          5          lj/cut/coul/long      0.017675             3.139425            
     pair_coeff           3          3          lj/cut/coul/long      0.024470             2.445635            
     pair_coeff           3          4          lj/cut/coul/long      0.040753             3.096641            
     pair_coeff           3          5          lj/cut/coul/long      0.042672             3.131079            
     pair_coeff           4          4          lj/cut/coul/long      0.159158             3.401731            
     pair_coeff           4          5          lj/cut/coul/long      0.171394             3.423514            
     pair_coeff           5          5          lj/cut/coul/long      0.184832             3.444626            

     # Stretching interactions
     bond_coeff           1           226.268111           1.805355            
     bond_coeff           2           373.840949           1.092751            
     bond_coeff           3           382.882557           1.091522            
     bond_coeff           4           315.916794           1.520810            

     # Bending interactions
     angle_coeff          1           44.575417            108.637673          
     angle_coeff          2           58.055122            110.557008          
     angle_coeff          3           41.292962            107.867284          
     angle_coeff          4           45.962855            110.478113          
     angle_coeff          5           40.520822            108.108049          
     angle_coeff          6           45.417683            111.031144          
     angle_coeff          7           49.783197            99.193597           

     # Dihedral interactions
     dihedral_coeff       1          opls                 -0.071368            -0.227297             0.445867            -0.093991            
     dihedral_coeff       2          opls                  0.073495             0.305305             0.274965            -0.545999            
     dihedral_coeff       3          opls                 -0.027687             0.070650             0.255215            -0.017164            
     dihedral_coeff       4          opls                 -0.201389            -0.320473             1.600288            -0.830963            
