#Run DFT-D3 single point of the dimer
! wB97X-D3 def2-TZVP TIGHTSCF CHELPG PMODEL PAL8

%base "3-12_DFT_AB"

%scf
MaxIter 1000
end

* xyz 0 1
  C                      0.141561             6.247437             4.342902            
  O                      -0.671210            6.055133             5.470995            
  H                      -0.143852            5.652897             6.120910            
  H                      0.997028             6.871239             4.544806            
  H                      0.411989             5.326716             3.898990            
  H                      -0.387381            6.739469             3.540981            
  C                      2.386429             2.995195             8.591899            
  O                      1.849610             4.090954             7.926021            
  H                      0.922716             3.954351             7.668493            
  H                      3.472603             3.087747             8.957386            
  H                      1.871403             2.819979             9.530052            
  H                      2.375562             2.106276             7.946624            
*

#Run DFT-D3 single point of the molecule with dimer basis set
$new_job
%base "3-12_DFT_A"
! wB97X-D3 def2-TZVP TIGHTSCF CHELPG PMODEL

%scf
MaxIter 1000
end

* xyz 0 1
  C                      0.141561             6.247437             4.342902            
  O                      -0.671210            6.055133             5.470995            
  H                      -0.143852            5.652897             6.120910            
  H                      0.997028             6.871239             4.544806            
  H                      0.411989             5.326716             3.898990            
  H                      -0.387381            6.739469             3.540981            
  C                    : 2.386429             2.995195             8.591899            
  O                    : 1.849610             4.090954             7.926021            
  H                    : 0.922716             3.954351             7.668493            
  H                    : 3.472603             3.087747             8.957386            
  H                    : 1.871403             2.819979             9.530052            
  H                    : 2.375562             2.106276             7.946624            
*

#Run DFT-D3 single point of the particle with dimer basis set
$new_job
%base "3-12_DFT_B"
! wB97X-D3 def2-TZVP TIGHTSCF CHELPG PMODEL

%scf
MaxIter 1000
end

* xyz 0 1
  C                    : 0.141561             6.247437             4.342902            
  O                    : -0.671210            6.055133             5.470995            
  H                    : -0.143852            5.652897             6.120910            
  H                    : 0.997028             6.871239             4.544806            
  H                    : 0.411989             5.326716             3.898990            
  H                    : -0.387381            6.739469             3.540981            
  C                      2.386429             2.995195             8.591899            
  O                      1.849610             4.090954             7.926021            
  H                      0.922716             3.954351             7.668493            
  H                      3.472603             3.087747             8.957386            
  H                      1.871403             2.819979             9.530052            
  H                      2.375562             2.106276             7.946624            
*
