#Run DFT geometry optimization
! wB97X-D3 def2-TZVP TIGHTSCF Grid5 FinalGrid6 Opt CHELPG PAL4

%base "2_geo_opt"
%geom MaxIter 500
end

%geom
  Constraints
    { B 2 1 C }
  end
end


* xyz 0 1
  C                    3.011189             -1.181132            0.598636            
  O                    4.394555             -1.128285            0.874452            
  H                    4.772314             -0.378787            0.412348            
  H                    2.806316             -1.319200            -0.469205           
  H                    2.611514             -2.040500            1.136043            
  H                    2.484639             -0.284726            0.945804            
*
