#Run DFT geometry optimization
! wB97X-D3 def2-TZVP TIGHTSCF Grid5 FinalGrid6 Opt CHELPG PAL4

%base "1_geo_opt"
%geom MaxIter 500
end

%geom
  Constraints
    { B 0 1 C }
  end
end


* xyz 0 1
  C                    3.010916             -1.180912            0.598414            
  O                    4.395065             -1.128035            0.874386            
  H                    4.772588             -0.379007            0.412571            
  H                    2.806042             -1.318980            -0.469428           
  H                    2.611240             -2.040280            1.135820            
  H                    2.484365             -0.284506            0.945581            
*
