#Run DFT geometry optimization
! wB97X-D3 def2-TZVP TIGHTSCF Grid5 FinalGrid6 Opt CHELPG PAL4

%base "0_geo_opt"
%geom MaxIter 500
end

%geom
  Constraints
    { B 5 0 C }
  end
end


* xyz 0 1
  C                    3.011548             -1.181306            0.598333            
  O                    4.394913             -1.128459            0.874149            
  H                    4.772436             -0.379431            0.412335            
  H                    2.806674             -1.319374            -0.469508           
  H                    2.611872             -2.040674            1.135740            
  H                    2.484517             -0.284082            0.945817            
*
