     # Non-bonded interactions (pair-wise)
     pair_coeff           1          1          lj/cut/coul/long      0.014134             2.441906            
     pair_coeff           1          2          lj/cut/coul/long      0.005542             2.504762            
     pair_coeff           1          3          lj/cut/coul/long      0.002529             2.226616            
     pair_coeff           1          4          lj/cut/coul/long      0.030559             3.136299            
     pair_coeff           1          5          lj/cut/coul/long      0.028619             3.115773            
     pair_coeff           1          6          lj/cut/coul/long      0.042524             2.743365            
     pair_coeff           2          2          lj/cut/coul/long      0.002217             2.560598            
     pair_coeff           2          3          lj/cut/coul/long      0.000898             2.322126            
     pair_coeff           2          4          lj/cut/coul/long      0.013461             3.155194            
     pair_coeff           2          5          lj/cut/coul/long      0.012588             3.135288            
     pair_coeff           2          6          lj/cut/coul/long      0.017948             2.779607            
     pair_coeff           3          3          lj/cut/coul/long      0.001000             1.779072            
     pair_coeff           3          4          lj/cut/coul/long      0.003472             3.084706            
     pair_coeff           3          5          lj/cut/coul/long      0.003266             3.062367            
     pair_coeff           3          6          lj/cut/coul/long      0.005547             2.636846            
     pair_coeff           4          4          lj/cut/coul/long      0.166874             3.451764            
     pair_coeff           4          5          lj/cut/coul/long      0.153583             3.439144            
     pair_coeff           4          6          lj/cut/coul/long      0.150884             3.244255            
     pair_coeff           5          5          lj/cut/coul/long      0.141420             3.426289            
     pair_coeff           5          6          lj/cut/coul/long      0.140271             3.226978            
     pair_coeff           6          6          lj/cut/coul/long      0.171189             2.936022            

     # Stretching interactions
     bond_coeff           1           363.956837           1.097645            
     bond_coeff           2           356.736641           1.099182            
     bond_coeff           3           611.563703           0.957250            
     bond_coeff           4           305.482370           1.517218            
     bond_coeff           5           364.232036           1.417091            
     bond_coeff           6           308.462503           1.524644            

     # Bending interactions
     angle_coeff          1           42.090622            106.520341          
     angle_coeff          2           48.819089            108.882482          
     angle_coeff          3           53.783225            109.355481          
     angle_coeff          4           42.216565            107.506329          
     angle_coeff          5           43.871230            109.428772          
     angle_coeff          6           61.934722            110.801561          
     angle_coeff          7           42.850375            107.424685          
     angle_coeff          8           55.089394            112.735713          
     angle_coeff          9           71.558371            108.671490          

     # Dihedral interactions
     dihedral_coeff       1          opls                  1.059349             0.249642             0.402642             0.163965            
     dihedral_coeff       2          opls                  0.830716             0.308229            -0.325238             0.399454            
     dihedral_coeff       3          opls                  0.592008            -1.246663             0.117533            -0.284629            
     dihedral_coeff       4          opls                 -0.867718             0.852009             0.375191             0.063201            
     dihedral_coeff       5          opls                  3.336899            -1.439672             0.876208            -0.207755            
     dihedral_coeff       6          opls                 -0.023619             0.019421             0.375822            -0.108748            
     dihedral_coeff       7          opls                 -0.635121            -0.135602             0.369960            -0.181880            
     dihedral_coeff       8          opls                  0.769755             1.756268             0.665787             0.197474            
     dihedral_coeff       9          opls                  5.140229            -1.951726             1.055292            -0.144993            
