#Run DFT-D3 single point of the dimer
! wB97X-D3 def2-TZVP TIGHTSCF  CHELPG PAL8

%base "144_charges"

%scf
MaxIter 1000
end
%output
  Print[ P_Mayer ] 1
  Print[ P_NatPop ] 1
  Print[ P_Hirshfeld ] 1
  Print[ P_Mulliken ] 1
  Print [ P_Loewdin ] 1
end

* xyz 0 1
  C                      -10.888933           5.527516             10.649440           
  O                      -11.403733           6.027131             9.444336            
  H                      -11.472208           5.208475             8.934901            
  H                      -11.143720           6.223615             11.446204           
  H                      -11.340169           4.525400             10.790329           
  H                      -9.782563            5.408685             10.735962           
*
