     # Non-bonded interactions (pair-wise)
     pair_coeff           1          1          lj/cut/coul/long      0.006523             2.470287            
     pair_coeff           1          2          lj/cut/coul/long      0.025774             3.072968            
     pair_coeff           1          3          lj/cut/coul/long      0.025821             2.708498            
     pair_coeff           2          2          lj/cut/coul/long      0.218126             3.366963            
     pair_coeff           2          3          lj/cut/coul/long      0.147840             3.167330            
     pair_coeff           3          3          lj/cut/coul/long      0.124669             2.872992            

     # Stretching interactions
     bond_coeff           1           360.575632           1.098824            
     bond_coeff           2           375.140608           1.400200            

     # Bending interactions
     angle_coeff          1           40.646717            108.276775          
     angle_coeff          2           59.090346            107.897133          
     angle_coeff          3           65.716020            111.326162          

     # Dihedral interactions
     dihedral_coeff       1          opls                  0.091582            -0.262189             0.812356            -0.242143            
