#Run DFT-D3 single point of the dimer
! wB97X-D3 def2-TZVP TIGHTSCF CHELPG PMODEL PAL8

%base "12-201_DFT_AB"

%scf
MaxIter 1000
end

* xyz 0 1
  C                      -4.487351            6.730992             -8.621234           
  O                      -5.169944            7.580776             -9.507352           
  H                      -4.499370            7.902019             -10.105670          
  H                      -3.474777            7.150716             -8.438658           
  H                      -4.982341            6.601507             -7.613983           
  H                      -4.219826            5.799168             -9.127553           
  C                      -6.268727            11.277316            -9.526417           
  O                      -6.726809            9.977676             -9.779781           
  H                      -6.249792            9.392314             -9.217543           
  H                      -6.790519            12.038245            -10.034972          
  H                      -6.384330            11.459130            -8.478355           
  H                      -5.215842            11.322579            -9.836590           
*

#Run DFT-D3 single point of the molecule with dimer basis set
$new_job
%base "12-201_DFT_A"
! wB97X-D3 def2-TZVP TIGHTSCF CHELPG PMODEL

%scf
MaxIter 1000
end

* xyz 0 1
  C                      -4.487351            6.730992             -8.621234           
  O                      -5.169944            7.580776             -9.507352           
  H                      -4.499370            7.902019             -10.105670          
  H                      -3.474777            7.150716             -8.438658           
  H                      -4.982341            6.601507             -7.613983           
  H                      -4.219826            5.799168             -9.127553           
  C                    : -6.268727            11.277316            -9.526417           
  O                    : -6.726809            9.977676             -9.779781           
  H                    : -6.249792            9.392314             -9.217543           
  H                    : -6.790519            12.038245            -10.034972          
  H                    : -6.384330            11.459130            -8.478355           
  H                    : -5.215842            11.322579            -9.836590           
*

#Run DFT-D3 single point of the particle with dimer basis set
$new_job
%base "12-201_DFT_B"
! wB97X-D3 def2-TZVP TIGHTSCF CHELPG PMODEL

%scf
MaxIter 1000
end

* xyz 0 1
  C                    : -4.487351            6.730992             -8.621234           
  O                    : -5.169944            7.580776             -9.507352           
  H                    : -4.499370            7.902019             -10.105670          
  H                    : -3.474777            7.150716             -8.438658           
  H                    : -4.982341            6.601507             -7.613983           
  H                    : -4.219826            5.799168             -9.127553           
  C                      -6.268727            11.277316            -9.526417           
  O                      -6.726809            9.977676             -9.779781           
  H                      -6.249792            9.392314             -9.217543           
  H                      -6.790519            12.038245            -10.034972          
  H                      -6.384330            11.459130            -8.478355           
  H                      -5.215842            11.322579            -9.836590           
*
