#Run DFT geometry optimization
! wB97X-D3 def2-TZVP TIGHTSCF Grid5 FinalGrid6 Opt CHELPG PAL4

%base "0_geo_opt"
%geom MaxIter 500
end

%geom
  Constraints
    { B 2 1 C }
  end
end


* xyz 0 1
  C                    3.011110             -1.181288            0.598733            
  O                    4.394476             -1.128441            0.874549            
  H                    4.772393             -0.378631            0.412252            
  H                    2.806237             -1.319356            -0.469109           
  H                    2.611435             -2.040656            1.136140            
  H                    2.484560             -0.284882            0.945900            
*
