     # Non-bonded interactions (pair-wise)
     pair_coeff           1          1          lj/cut/coul/long      0.246158             3.629014            
     pair_coeff           1          2          lj/cut/coul/long      0.005799             3.252566            
     pair_coeff           1          3          lj/cut/coul/long      0.236382             3.446001            
     pair_coeff           2          2          lj/cut/coul/long      0.001000             2.092068            
     pair_coeff           2          3          lj/cut/coul/long      0.008416             2.883123            
     pair_coeff           3          3          lj/cut/coul/long      0.261682             3.195576            

     # Stretching interactions
     bond_coeff           1           222.720558           1.760883            
     bond_coeff           2           405.995449           1.083483            

     # Bending interactions
     angle_coeff          1           80.004083            111.118508          
     angle_coeff          2           47.232113            107.771739          

     # Dihedral interactions
