#Run DFT geometry optimization
! wB97X-D3 def2-TZVP TIGHTSCF Grid5 FinalGrid6 Opt CHELPG PAL4

%base "4_geo_opt"
%geom MaxIter 500
end

%geom
  Constraints
    { B 0 1 C }
  end
end


* xyz 0 1
  C                    3.011210             -1.180901            0.598472            
  O                    4.394771             -1.128046            0.874327            
  H                    4.772294             -0.379018            0.412513            
  H                    2.806336             -1.318969            -0.469369           
  H                    2.611534             -2.040269            1.135879            
  H                    2.484659             -0.284495            0.945639            
*
