#Run DFT geometry optimization
! wB97X-D3 def2-TZVP TIGHTSCF Grid5 FinalGrid6 Opt CHELPG PAL4

%base "0_geo_opt"
%geom MaxIter 500
end

%geom
  Constraints
    { A 5 0 4 C }
  end
end


* xyz 0 1
  C                    3.011308             -1.180897            0.598492            
  O                    4.394673             -1.128050            0.874308            
  H                    4.772196             -0.379022            0.412493            
  H                    2.806434             -1.318965            -0.469350           
  H                    2.614614             -2.043116            1.133536            
  H                    2.487365             -0.281816            0.942674            
*
