#Run DFT-D3 single point of the dimer
! wB97X-D3 def2-TZVP TIGHTSCF  CHELPG PAL8

%base "82_charges"

%scf
MaxIter 1000
end
%output
  Print[ P_Mayer ] 1
  Print[ P_NatPop ] 1
  Print[ P_Hirshfeld ] 1
  Print[ P_Mulliken ] 1
  Print [ P_Loewdin ] 1
end

* xyz 0 1
  C                      3.148158             4.646782             -2.117466           
  O                      3.249568             5.999764             -1.780564           
  H                      3.323481             6.529908             -2.581000           
  H                      3.523574             4.060480             -1.321831           
  H                      2.111619             4.295413             -2.309618           
  H                      3.798835             4.443636             -2.995783           
*
