     # Non-bonded interactions (pair-wise)
     pair_coeff           1          1          lj/cut/coul/long      0.002217             2.560598            
     pair_coeff           1          2          lj/cut/coul/long      0.003838             2.491259            
     pair_coeff           1          3          lj/cut/coul/long      0.000898             2.322126            
     pair_coeff           1          4          lj/cut/coul/long      0.006061             3.255009            
     pair_coeff           1          5          lj/cut/coul/long      0.014739             3.130024            
     pair_coeff           1          6          lj/cut/coul/long      0.017948             2.779607            
     pair_coeff           1          7          lj/cut/coul/long      0.014060             2.835626            
     pair_coeff           2          2          lj/cut/coul/long      0.006864             2.410669            
     pair_coeff           2          3          lj/cut/coul/long      0.001813             2.201944            
     pair_coeff           2          4          lj/cut/coul/long      0.009230             3.235185            
     pair_coeff           2          5          lj/cut/coul/long      0.022672             3.105813            
     pair_coeff           2          6          lj/cut/coul/long      0.029048             2.734846            
     pair_coeff           2          7          lj/cut/coul/long      0.022496             2.795305            
     pair_coeff           3          3          lj/cut/coul/long      0.001000             1.779072            
     pair_coeff           3          4          lj/cut/coul/long      0.001526             3.195282            
     pair_coeff           3          5          lj/cut/coul/long      0.003829             3.056442            
     pair_coeff           3          6          lj/cut/coul/long      0.005547             2.636846            
     pair_coeff           3          7          lj/cut/coul/long      0.004171             2.708490            
     pair_coeff           4          4          lj/cut/coul/long      0.039652             3.577623            
     pair_coeff           4          5          lj/cut/coul/long      0.086516             3.503030            
     pair_coeff           4          6          lj/cut/coul/long      0.069763             3.332101            
     pair_coeff           4          7          lj/cut/coul/long      0.059069             3.355487            
     pair_coeff           5          5          lj/cut/coul/long      0.192259             3.419530            
     pair_coeff           5          6          lj/cut/coul/long      0.163969             3.222424            
     pair_coeff           5          7          lj/cut/coul/long      0.137578             3.249964            
     pair_coeff           6          6          lj/cut/coul/long      0.171189             2.936022            
     pair_coeff           6          7          lj/cut/coul/long      0.138479             2.979211            
     pair_coeff           7          7          lj/cut/coul/long      0.112813             3.019480            

     # Stretching interactions
     bond_coeff           1           379.612265           1.092398            
     bond_coeff           2           351.957078           1.102259            
     bond_coeff           3           611.563703           0.957250            
     bond_coeff           4           607.128288           0.958235            
     bond_coeff           5           294.224105           1.521165            
     bond_coeff           6           349.220602           1.420885            
     bond_coeff           7           372.148680           1.420964            

     # Bending interactions
     angle_coeff          1           41.542428            107.703938          
     angle_coeff          2           46.849887            108.318659          
     angle_coeff          3           58.617595            106.623455          
     angle_coeff          4           41.241224            109.383588          
     angle_coeff          5           58.340118            110.140801          
     angle_coeff          6           42.850375            107.424685          
     angle_coeff          7           48.620059            107.474196          
     angle_coeff          8           59.558360            113.564270          
     angle_coeff          9           72.996273            112.850618          
     angle_coeff          10          96.551448            110.187319          

     # Dihedral interactions
     dihedral_coeff       1          opls                  1.899657            -3.065051             0.945903             0.195457            
     dihedral_coeff       2          opls                  2.706820            -1.236883             1.882922            -2.510817            
     dihedral_coeff       3          opls                 -4.360942             1.939654             2.142203             4.650852            
     dihedral_coeff       4          opls                 -3.313194             0.745798             0.790041             0.079862            
     dihedral_coeff       5          opls                 -6.082354             0.156996            -0.712489            -1.321869            
     dihedral_coeff       6          opls                  3.275342             3.121118             1.237368            -4.286804            
     dihedral_coeff       7          opls                 -0.579618            -0.167093            -0.442855            -0.016626            
     dihedral_coeff       8          opls                  3.988832            -3.671366             0.459170            -5.534657            
     dihedral_coeff       9          opls                 -5.005333             4.356627             0.163906            -3.194252            
     dihedral_coeff       10         opls                  8.654231            -0.919678            -0.999777             2.431740            
