#Run DFT-D3 single point of the dimer
! wB97X-D3 def2-TZVP TIGHTSCF  CHELPG PAL8

%base "126_charges"

%scf
MaxIter 1000
end
%output
  Print[ P_Mayer ] 1
  Print[ P_NatPop ] 1
  Print[ P_Hirshfeld ] 1
  Print[ P_Mulliken ] 1
  Print [ P_Loewdin ] 1
end

* xyz 0 1
  C                      10.268318            -0.064955            3.600848            
  O                      10.077951            1.269679             3.179744            
  H                      9.544538             1.346072             2.377810            
  H                      11.281957            -0.290169            3.953706            
  H                      9.653700             -0.297395            4.438765            
  H                      10.163989            -0.794259            2.777363            
*
