#Run DFT-D3 single point of the dimer
! wB97X-D3 def2-TZVP TIGHTSCF CHELPG PMODEL PAL8

%base "10-216_DFT_AB"

%scf
MaxIter 1000
end

* xyz 0 1
  C                      3.390229             -8.763379            8.206568            
  O                      2.293317             -8.817549            7.273787            
  H                      1.603742             -8.200066            7.583275            
  H                      4.340334             -8.858161            7.725690            
  H                      3.457738             -7.764749            8.617547            
  H                      3.260541             -9.496691            9.021267            
  C                      4.927070             -7.136852            4.687210            
  O                      3.481489             -7.286531            4.707330            
  H                      3.231415             -7.831343            5.483614            
  H                      5.359156             -6.790389            3.759214            
  H                      5.171913             -6.330077            5.394438            
  H                      5.407996             -8.090754            4.960268            
*

#Run DFT-D3 single point of the molecule with dimer basis set
$new_job
%base "10-216_DFT_A"
! wB97X-D3 def2-TZVP TIGHTSCF CHELPG PMODEL

%scf
MaxIter 1000
end

* xyz 0 1
  C                      3.390229             -8.763379            8.206568            
  O                      2.293317             -8.817549            7.273787            
  H                      1.603742             -8.200066            7.583275            
  H                      4.340334             -8.858161            7.725690            
  H                      3.457738             -7.764749            8.617547            
  H                      3.260541             -9.496691            9.021267            
  C                    : 4.927070             -7.136852            4.687210            
  O                    : 3.481489             -7.286531            4.707330            
  H                    : 3.231415             -7.831343            5.483614            
  H                    : 5.359156             -6.790389            3.759214            
  H                    : 5.171913             -6.330077            5.394438            
  H                    : 5.407996             -8.090754            4.960268            
*

#Run DFT-D3 single point of the particle with dimer basis set
$new_job
%base "10-216_DFT_B"
! wB97X-D3 def2-TZVP TIGHTSCF CHELPG PMODEL

%scf
MaxIter 1000
end

* xyz 0 1
  C                    : 3.390229             -8.763379            8.206568            
  O                    : 2.293317             -8.817549            7.273787            
  H                    : 1.603742             -8.200066            7.583275            
  H                    : 4.340334             -8.858161            7.725690            
  H                    : 3.457738             -7.764749            8.617547            
  H                    : 3.260541             -9.496691            9.021267            
  C                      4.927070             -7.136852            4.687210            
  O                      3.481489             -7.286531            4.707330            
  H                      3.231415             -7.831343            5.483614            
  H                      5.359156             -6.790389            3.759214            
  H                      5.171913             -6.330077            5.394438            
  H                      5.407996             -8.090754            4.960268            
*
