#Run DFT-D3 single point of the dimer
! wB97X-D3 def2-TZVP TIGHTSCF  CHELPG PAL8

%base "117_charges"

%scf
MaxIter 1000
end
%output
  Print[ P_Mayer ] 1
  Print[ P_NatPop ] 1
  Print[ P_Hirshfeld ] 1
  Print[ P_Mulliken ] 1
  Print [ P_Loewdin ] 1
end

* xyz 0 1
  C                      7.689515             -0.407041            -0.344281           
  O                      8.952227             0.125374             -0.049574           
  H                      9.528362             -0.409065            -0.570136           
  H                      7.332576             -0.062362            -1.265311           
  H                      7.725790             -1.498943            -0.328179           
  H                      7.026471             -0.204145            0.469333            
*
