#Run DFT-D3 single point of the dimer
! wB97X-D3 def2-TZVP TIGHTSCF CHELPG PMODEL PAL8

%base "22-183_DFT_AB"

%scf
MaxIter 1000
end

* xyz 0 1
  C                      -9.665503            -0.198202            1.765964            
  O                      -8.653392            0.652441             1.222049            
  H                      -7.938481            0.685364             1.859713            
  H                      -10.419255           -0.264382            0.990156            
  H                      -9.288481            -1.229895            1.780120            
  H                      -10.088731           0.192472             2.753794            
  C                      -5.692550            1.901608             3.566777            
  O                      -7.040810            1.705457             3.262053            
  H                      -7.466480            2.089699             4.000003            
  H                      -5.360571            1.400540             4.493794            
  H                      -5.074684            1.437243             2.750245            
  H                      -5.512614            2.980023             3.658668            
*

#Run DFT-D3 single point of the molecule with dimer basis set
$new_job
%base "22-183_DFT_A"
! wB97X-D3 def2-TZVP TIGHTSCF CHELPG PMODEL

%scf
MaxIter 1000
end

* xyz 0 1
  C                      -9.665503            -0.198202            1.765964            
  O                      -8.653392            0.652441             1.222049            
  H                      -7.938481            0.685364             1.859713            
  H                      -10.419255           -0.264382            0.990156            
  H                      -9.288481            -1.229895            1.780120            
  H                      -10.088731           0.192472             2.753794            
  C                    : -5.692550            1.901608             3.566777            
  O                    : -7.040810            1.705457             3.262053            
  H                    : -7.466480            2.089699             4.000003            
  H                    : -5.360571            1.400540             4.493794            
  H                    : -5.074684            1.437243             2.750245            
  H                    : -5.512614            2.980023             3.658668            
*

#Run DFT-D3 single point of the particle with dimer basis set
$new_job
%base "22-183_DFT_B"
! wB97X-D3 def2-TZVP TIGHTSCF CHELPG PMODEL

%scf
MaxIter 1000
end

* xyz 0 1
  C                    : -9.665503            -0.198202            1.765964            
  O                    : -8.653392            0.652441             1.222049            
  H                    : -7.938481            0.685364             1.859713            
  H                    : -10.419255           -0.264382            0.990156            
  H                    : -9.288481            -1.229895            1.780120            
  H                    : -10.088731           0.192472             2.753794            
  C                      -5.692550            1.901608             3.566777            
  O                      -7.040810            1.705457             3.262053            
  H                      -7.466480            2.089699             4.000003            
  H                      -5.360571            1.400540             4.493794            
  H                      -5.074684            1.437243             2.750245            
  H                      -5.512614            2.980023             3.658668            
*
