#Run DFT-D3 single point of the dimer
! wB97X-D3 def2-TZVP TIGHTSCF  CHELPG PAL8

%base "199_charges"

%scf
MaxIter 1000
end
%output
  Print[ P_Mayer ] 1
  Print[ P_NatPop ] 1
  Print[ P_Hirshfeld ] 1
  Print[ P_Mulliken ] 1
  Print [ P_Loewdin ] 1
end

* xyz 0 1
  C                      -8.911687            3.075292             -2.493319           
  O                      -8.598312            3.600536             -1.230369           
  H                      -7.694995            3.846846             -1.310943           
  H                      -8.196241            2.366286             -2.792120           
  H                      -9.753539            2.443139             -2.483027           
  H                      -9.006679            3.788565             -3.307491           
*
