#Run DFT-D3 single point of the dimer
! wB97X-D3 def2-TZVP TIGHTSCF  CHELPG PAL8

%base "38_charges"

%scf
MaxIter 1000
end
%output
  Print[ P_Mayer ] 1
  Print[ P_NatPop ] 1
  Print[ P_Hirshfeld ] 1
  Print[ P_Mulliken ] 1
  Print [ P_Loewdin ] 1
end

* xyz 0 1
  C                      -0.045250            -8.769703            10.129262           
  O                      -0.711824            -9.562924            9.105138            
  H                      -1.361612            -8.980587            8.737988            
  H                      0.637919             -9.437258            10.673104           
  H                      0.634481             -7.941675            9.761795            
  H                      -0.761298            -8.363546            10.823555           
*
