#Run DFT-D3 single point of the dimer
! wB97X-D3 def2-TZVP TIGHTSCF CHELPG PMODEL PAL8

%base "2-20_DFT_AB"

%scf
MaxIter 1000
end

* xyz 0 1
  C                      3.461109             3.222378             4.105244            
  O                      3.157580             2.071432             3.453058            
  H                      2.370845             1.638740             3.819682            
  H                      3.982423             3.051816             5.032330            
  H                      4.203252             3.873688             3.594400            
  H                      2.649209             3.897304             4.300673            
  C                      7.947576             2.902656             3.136526            
  O                      7.448989             4.167709             2.786762            
  H                      7.372566             4.238832             1.809734            
  H                      9.033967             2.850588             3.156712            
  H                      7.690533             2.580126             4.118163            
  H                      7.591214             2.235647             2.271137            
*

#Run DFT-D3 single point of the molecule with dimer basis set
$new_job
%base "2-20_DFT_A"
! wB97X-D3 def2-TZVP TIGHTSCF CHELPG PMODEL

%scf
MaxIter 1000
end

* xyz 0 1
  C                      3.461109             3.222378             4.105244            
  O                      3.157580             2.071432             3.453058            
  H                      2.370845             1.638740             3.819682            
  H                      3.982423             3.051816             5.032330            
  H                      4.203252             3.873688             3.594400            
  H                      2.649209             3.897304             4.300673            
  C                    : 7.947576             2.902656             3.136526            
  O                    : 7.448989             4.167709             2.786762            
  H                    : 7.372566             4.238832             1.809734            
  H                    : 9.033967             2.850588             3.156712            
  H                    : 7.690533             2.580126             4.118163            
  H                    : 7.591214             2.235647             2.271137            
*

#Run DFT-D3 single point of the particle with dimer basis set
$new_job
%base "2-20_DFT_B"
! wB97X-D3 def2-TZVP TIGHTSCF CHELPG PMODEL

%scf
MaxIter 1000
end

* xyz 0 1
  C                    : 3.461109             3.222378             4.105244            
  O                    : 3.157580             2.071432             3.453058            
  H                    : 2.370845             1.638740             3.819682            
  H                    : 3.982423             3.051816             5.032330            
  H                    : 4.203252             3.873688             3.594400            
  H                    : 2.649209             3.897304             4.300673            
  C                      7.947576             2.902656             3.136526            
  O                      7.448989             4.167709             2.786762            
  H                      7.372566             4.238832             1.809734            
  H                      9.033967             2.850588             3.156712            
  H                      7.690533             2.580126             4.118163            
  H                      7.591214             2.235647             2.271137            
*
