#Run DFT-D3 single point of the dimer
! wB97X-D3 def2-TZVP TIGHTSCF CHELPG PMODEL PAL8

%base "12-139_DFT_AB"

%scf
MaxIter 1000
end

* xyz 0 1
  C                      -10.283493           9.978408             -10.275157          
  O                      -11.267189           9.607481             -11.187153          
  H                      -11.688770           10.407846            -11.472604          
  H                      -10.659074           10.881572            -9.761317           
  H                      -10.135264           9.323717             -9.439951           
  H                      -9.326250            10.102060            -10.736704          
  C                      -6.268727            11.277316            -9.526417           
  O                      -6.726809            9.977676             -9.779781           
  H                      -6.249792            9.392314             -9.217543           
  H                      -6.790519            12.038245            -10.034972          
  H                      -6.384330            11.459130            -8.478355           
  H                      -5.215842            11.322579            -9.836590           
*

#Run DFT-D3 single point of the molecule with dimer basis set
$new_job
%base "12-139_DFT_A"
! wB97X-D3 def2-TZVP TIGHTSCF CHELPG PMODEL

%scf
MaxIter 1000
end

* xyz 0 1
  C                      -10.283493           9.978408             -10.275157          
  O                      -11.267189           9.607481             -11.187153          
  H                      -11.688770           10.407846            -11.472604          
  H                      -10.659074           10.881572            -9.761317           
  H                      -10.135264           9.323717             -9.439951           
  H                      -9.326250            10.102060            -10.736704          
  C                    : -6.268727            11.277316            -9.526417           
  O                    : -6.726809            9.977676             -9.779781           
  H                    : -6.249792            9.392314             -9.217543           
  H                    : -6.790519            12.038245            -10.034972          
  H                    : -6.384330            11.459130            -8.478355           
  H                    : -5.215842            11.322579            -9.836590           
*

#Run DFT-D3 single point of the particle with dimer basis set
$new_job
%base "12-139_DFT_B"
! wB97X-D3 def2-TZVP TIGHTSCF CHELPG PMODEL

%scf
MaxIter 1000
end

* xyz 0 1
  C                    : -10.283493           9.978408             -10.275157          
  O                    : -11.267189           9.607481             -11.187153          
  H                    : -11.688770           10.407846            -11.472604          
  H                    : -10.659074           10.881572            -9.761317           
  H                    : -10.135264           9.323717             -9.439951           
  H                    : -9.326250            10.102060            -10.736704          
  C                      -6.268727            11.277316            -9.526417           
  O                      -6.726809            9.977676             -9.779781           
  H                      -6.249792            9.392314             -9.217543           
  H                      -6.790519            12.038245            -10.034972          
  H                      -6.384330            11.459130            -8.478355           
  H                      -5.215842            11.322579            -9.836590           
*
