#Run DFT geometry optimization
! wB97X-D3 def2-TZVP TIGHTSCF Grid5 FinalGrid6 Opt CHELPG PAL4

%base "7_geo_opt"
%geom MaxIter 500
end

%geom
  Constraints
    { B 5 0 C }
  end
end


* xyz 0 1
  C                    3.011211             -1.180734            0.598555            
  O                    4.394577             -1.127886            0.874371            
  H                    4.772100             -0.378858            0.412556            
  H                    2.806338             -1.318801            -0.469286           
  H                    2.611536             -2.040101            1.135962            
  H                    2.484853             -0.284655            0.945596            
*
