#Run DFT-D3 single point of the dimer
! wB97X-D3 def2-TZVP TIGHTSCF CHELPG PMODEL PAL8

%base "5-116_DFT_AB"

%scf
MaxIter 1000
end

* xyz 0 1
  C                      3.183736             5.995113             10.955954           
  O                      3.499495             4.613569             11.171923           
  H                      2.819800             4.190897             11.702328           
  H                      3.994705             6.451378             10.373368           
  H                      2.292251             6.198718             10.312832           
  H                      3.131440             6.583796             11.863189           
  C                      3.486480             3.228859             8.221319            
  O                      2.522415             3.169753             7.171578            
  H                      2.924334             3.012917             6.317033            
  H                      3.112496             2.768738             9.151670            
  H                      4.386893             2.667311             8.000667            
  H                      3.835800             4.237860             8.215932            
*

#Run DFT-D3 single point of the molecule with dimer basis set
$new_job
%base "5-116_DFT_A"
! wB97X-D3 def2-TZVP TIGHTSCF CHELPG PMODEL

%scf
MaxIter 1000
end

* xyz 0 1
  C                      3.183736             5.995113             10.955954           
  O                      3.499495             4.613569             11.171923           
  H                      2.819800             4.190897             11.702328           
  H                      3.994705             6.451378             10.373368           
  H                      2.292251             6.198718             10.312832           
  H                      3.131440             6.583796             11.863189           
  C                    : 3.486480             3.228859             8.221319            
  O                    : 2.522415             3.169753             7.171578            
  H                    : 2.924334             3.012917             6.317033            
  H                    : 3.112496             2.768738             9.151670            
  H                    : 4.386893             2.667311             8.000667            
  H                    : 3.835800             4.237860             8.215932            
*

#Run DFT-D3 single point of the particle with dimer basis set
$new_job
%base "5-116_DFT_B"
! wB97X-D3 def2-TZVP TIGHTSCF CHELPG PMODEL

%scf
MaxIter 1000
end

* xyz 0 1
  C                    : 3.183736             5.995113             10.955954           
  O                    : 3.499495             4.613569             11.171923           
  H                    : 2.819800             4.190897             11.702328           
  H                    : 3.994705             6.451378             10.373368           
  H                    : 2.292251             6.198718             10.312832           
  H                    : 3.131440             6.583796             11.863189           
  C                      3.486480             3.228859             8.221319            
  O                      2.522415             3.169753             7.171578            
  H                      2.924334             3.012917             6.317033            
  H                      3.112496             2.768738             9.151670            
  H                      4.386893             2.667311             8.000667            
  H                      3.835800             4.237860             8.215932            
*
