#Run DFT-D3 single point of the dimer
! wB97X-D3 def2-TZVP TIGHTSCF  CHELPG PAL8

%base "91_charges"

%scf
MaxIter 1000
end
%output
  Print[ P_Mayer ] 1
  Print[ P_NatPop ] 1
  Print[ P_Hirshfeld ] 1
  Print[ P_Mulliken ] 1
  Print [ P_Loewdin ] 1
end

* xyz 0 1
  C                      7.724144             -6.032143            -3.309285           
  O                      7.841854             -6.128180            -4.721289           
  H                      6.889611             -6.159205            -4.885336           
  H                      6.863186             -6.620997            -2.928870           
  H                      8.575960             -6.429634            -2.794604           
  H                      7.598050             -4.964165            -3.096054           
*
