     # Non-bonded interactions (pair-wise)
     pair_coeff           1          1          lj/cut/coul/long      0.020709             2.353068            
     pair_coeff           1          2          lj/cut/coul/long      0.047330             3.192552            
     pair_coeff           1          3          lj/cut/coul/long      0.042449             3.105641            
     pair_coeff           2          2          lj/cut/coul/long      0.366768             3.533962            
     pair_coeff           2          3          lj/cut/coul/long      0.303959             3.483320            
     pair_coeff           3          3          lj/cut/coul/long      0.253985             3.428704            

     # Stretching interactions
     bond_coeff           1           398.545641           1.085394            
     bond_coeff           2           210.428215           1.930621            

     # Bending interactions
     angle_coeff          1           38.038619            110.738487          
     angle_coeff          2           46.100918            108.171450          

     # Dihedral interactions
