#Run DFT-D3 single point of the dimer
! wB97X-D3 def2-TZVP TIGHTSCF  CHELPG PAL8

%base "25_charges"

%scf
MaxIter 1000
end
%output
  Print[ P_Mayer ] 1
  Print[ P_NatPop ] 1
  Print[ P_Hirshfeld ] 1
  Print[ P_Mulliken ] 1
  Print [ P_Loewdin ] 1
end

* xyz 0 1
  C                      -9.568668            -2.562127            3.226594            
  O                      -10.668221           -2.241973            2.439989            
  H                      -10.878699           -3.028132            1.881909            
  H                      -9.739475            -3.479929            3.794011            
  H                      -8.719056            -2.807948            2.581830            
  H                      -9.111186            -1.768636            3.839962            
*
