     # Non-bonded interactions (pair-wise)
     pair_coeff           1          1          lj/cut/coul/long      0.003575             2.478154            
     pair_coeff           1          2          lj/cut/coul/long      0.009346             2.462163            
     pair_coeff           1          3          lj/cut/coul/long      0.007101             2.460364            
     pair_coeff           1          4          lj/cut/coul/long      0.021678             3.262640            
     pair_coeff           1          5          lj/cut/coul/long      0.016870             3.120927            
     pair_coeff           1          6          lj/cut/coul/long      0.015501             3.063180            
     pair_coeff           1          7          lj/cut/coul/long      0.018442             3.143336            
     pair_coeff           2          2          lj/cut/coul/long      0.024470             2.445635            
     pair_coeff           2          3          lj/cut/coul/long      0.018597             2.443774            
     pair_coeff           2          4          lj/cut/coul/long      0.054914             3.258650            
     pair_coeff           2          5          lj/cut/coul/long      0.042830             3.115940            
     pair_coeff           2          6          lj/cut/coul/long      0.039399             3.057702            
     pair_coeff           2          7          lj/cut/coul/long      0.046801             3.138525            
     pair_coeff           3          3          lj/cut/coul/long      0.014134             2.441906            
     pair_coeff           3          4          lj/cut/coul/long      0.041578             3.258207            
     pair_coeff           3          5          lj/cut/coul/long      0.032437             3.115386            
     pair_coeff           3          6          lj/cut/coul/long      0.029842             3.057094            
     pair_coeff           3          7          lj/cut/coul/long      0.035443             3.137991            
     pair_coeff           4          4          lj/cut/coul/long      0.378637             3.601095            
     pair_coeff           4          5          lj/cut/coul/long      0.259280             3.518899            
     pair_coeff           4          6          lj/cut/coul/long      0.224568             3.487968            
     pair_coeff           4          7          lj/cut/coul/long      0.289681             3.531310            
     pair_coeff           5          5          lj/cut/coul/long      0.181557             3.425808            
     pair_coeff           5          6          lj/cut/coul/long      0.158757             3.390300            
     pair_coeff           5          7          lj/cut/coul/long      0.202107             3.439977            
     pair_coeff           6          6          lj/cut/coul/long      0.139401             3.352830            
     pair_coeff           6          7          lj/cut/coul/long      0.176448             3.405217            
     pair_coeff           7          7          lj/cut/coul/long      0.225118             3.453860            

     # Stretching interactions
     bond_coeff           1           388.755852           1.088463            
     bond_coeff           2           377.846244           1.093155            
     bond_coeff           3           377.573422           1.092610            
     bond_coeff           4           193.036370           1.944686            
     bond_coeff           5           309.672316           1.524513            
     bond_coeff           6           315.171888           1.514245            

     # Bending interactions
     angle_coeff          1           40.565864            108.913909          
     angle_coeff          2           46.957499            105.982115          
     angle_coeff          3           42.392755            111.271189          
     angle_coeff          4           41.552646            107.471780          
     angle_coeff          5           42.974247            110.860267          
     angle_coeff          6           42.081570            106.701301          
     angle_coeff          7           47.860857            109.964634          
     angle_coeff          8           50.062955            109.292443          
     angle_coeff          9           67.984766            112.505875          
     angle_coeff          10          68.192111            110.125812          

     # Dihedral interactions
     dihedral_coeff       1          opls                 -0.008840             0.104575             0.199873             0.023011            
     dihedral_coeff       2          opls                 -0.152283            -0.089172             0.371373            -0.407774            
     dihedral_coeff       3          opls                  0.041978             0.049589             0.243953            -0.025642            
     dihedral_coeff       4          opls                 -0.199920            -0.248477             0.409683            -0.039362            
     dihedral_coeff       5          opls                 -0.165970            -0.094438             0.750575             0.301013            
     dihedral_coeff       6          opls                  0.079664            -0.728550             0.895965            -0.011639            
