     # Non-bonded interactions (pair-wise)
     pair_coeff           1          1          lj/cut/coul/long      0.024470             2.445635            
     pair_coeff           1          2          lj/cut/coul/long      0.018597             2.443774            
     pair_coeff           1          3          lj/cut/coul/long      0.038427             2.987040            
     pair_coeff           1          4          lj/cut/coul/long      0.034251             3.136686            
     pair_coeff           1          5          lj/cut/coul/long      0.029182             3.209163            
     pair_coeff           1          6          lj/cut/coul/long      0.062239             2.593225            
     pair_coeff           2          2          lj/cut/coul/long      0.014134             2.441906            
     pair_coeff           2          3          lj/cut/coul/long      0.029111             2.986357            
     pair_coeff           2          4          lj/cut/coul/long      0.025938             3.136151            
     pair_coeff           2          5          lj/cut/coul/long      0.022097             3.208685            
     pair_coeff           2          6          lj/cut/coul/long      0.047237             2.591838            
     pair_coeff           3          3          lj/cut/coul/long      0.117925             3.262847            
     pair_coeff           3          4          lj/cut/coul/long      0.117382             3.363818            
     pair_coeff           3          5          lj/cut/coul/long      0.104600             3.415900            
     pair_coeff           3          6          lj/cut/coul/long      0.123273             3.047121            
     pair_coeff           4          4          lj/cut/coul/long      0.120199             3.451581            
     pair_coeff           4          5          lj/cut/coul/long      0.108477             3.497617            
     pair_coeff           4          6          lj/cut/coul/long      0.113114             3.184323            
     pair_coeff           5          5          lj/cut/coul/long      0.098474             3.540809            
     pair_coeff           5          6          lj/cut/coul/long      0.097452             3.251859            
     pair_coeff           6          6          lj/cut/coul/long      0.173555             2.707894            

     # Stretching interactions
     bond_coeff           1           381.262285           1.092656            
     bond_coeff           2           390.253707           1.089442            
     bond_coeff           3           295.747125           1.510329            
     bond_coeff           4           262.233280           1.522192            
     bond_coeff           5           941.674284           1.205408            

     # Bending interactions
     angle_coeff          1           39.737939            107.011115          
     angle_coeff          2           42.466022            110.067728          
     angle_coeff          3           38.885515            111.171256          
     angle_coeff          4           44.747862            111.133015          
     angle_coeff          5           42.879881            105.018773          
     angle_coeff          6           44.628029            116.130120          
     angle_coeff          7           68.219259            121.695473          
     angle_coeff          8           77.373532            122.019683          

     # Dihedral interactions
     dihedral_coeff       1          opls                 -0.031918             0.081103            -0.283616             0.344171            
     dihedral_coeff       2          opls                 -0.217590             0.354074            -0.380167             0.571063            
     dihedral_coeff       3          opls                 -0.963383             0.029603            -0.634655             0.186722            
     dihedral_coeff       4          opls                  0.268274            -0.311567            -0.025266             0.677188            
     dihedral_coeff       5          opls                  1.517708            -0.295181             0.439206             1.064727            
     dihedral_coeff       6          opls                 -0.419231             0.496739            -0.796636             0.407810            
