#Run DFT-D3 single point of the dimer
! wB97X-D3 def2-TZVP TIGHTSCF CHELPG PMODEL PAL8

%base "12-31_DFT_AB"

%scf
MaxIter 1000
end

* xyz 0 1
  C                      5.213601             -6.424230            1.445439            
  O                      5.630218             -5.208946            2.075847            
  H                      5.563530             -4.576802            1.354313            
  H                      5.329758             -7.331916            2.140380            
  H                      4.144093             -6.377885            1.182249            
  H                      5.866397             -6.714165            0.524728            
  C                      4.774426             -8.100343            -2.462904           
  O                      3.775210             -8.706812            -3.317403           
  H                      3.715647             -9.629430            -3.337274           
  H                      5.720722             -8.688947            -2.542135           
  H                      5.002248             -7.044043            -2.599598           
  H                      4.446611             -8.023833            -1.378385           
*

#Run DFT-D3 single point of the molecule with dimer basis set
$new_job
%base "12-31_DFT_A"
! wB97X-D3 def2-TZVP TIGHTSCF CHELPG PMODEL

%scf
MaxIter 1000
end

* xyz 0 1
  C                      5.213601             -6.424230            1.445439            
  O                      5.630218             -5.208946            2.075847            
  H                      5.563530             -4.576802            1.354313            
  H                      5.329758             -7.331916            2.140380            
  H                      4.144093             -6.377885            1.182249            
  H                      5.866397             -6.714165            0.524728            
  C                    : 4.774426             -8.100343            -2.462904           
  O                    : 3.775210             -8.706812            -3.317403           
  H                    : 3.715647             -9.629430            -3.337274           
  H                    : 5.720722             -8.688947            -2.542135           
  H                    : 5.002248             -7.044043            -2.599598           
  H                    : 4.446611             -8.023833            -1.378385           
*

#Run DFT-D3 single point of the particle with dimer basis set
$new_job
%base "12-31_DFT_B"
! wB97X-D3 def2-TZVP TIGHTSCF CHELPG PMODEL

%scf
MaxIter 1000
end

* xyz 0 1
  C                    : 5.213601             -6.424230            1.445439            
  O                    : 5.630218             -5.208946            2.075847            
  H                    : 5.563530             -4.576802            1.354313            
  H                    : 5.329758             -7.331916            2.140380            
  H                    : 4.144093             -6.377885            1.182249            
  H                    : 5.866397             -6.714165            0.524728            
  C                      4.774426             -8.100343            -2.462904           
  O                      3.775210             -8.706812            -3.317403           
  H                      3.715647             -9.629430            -3.337274           
  H                      5.720722             -8.688947            -2.542135           
  H                      5.002248             -7.044043            -2.599598           
  H                      4.446611             -8.023833            -1.378385           
*
