#Run DFT-D3 single point of the dimer
! wB97X-D3 def2-TZVP TIGHTSCF CHELPG PMODEL PAL8

%base "18-70_DFT_AB"

%scf
MaxIter 1000
end

* xyz 0 1
  C                      -9.376882            2.477543             -4.713638           
  O                      -8.879101            1.249759             -4.251672           
  H                      -8.504587            1.328272             -3.362079           
  H                      -8.510873            3.150077             -4.795730           
  H                      -9.919677            2.295343             -5.655822           
  H                      -10.081456           2.950234             -3.991283           
  C                      -7.665083            6.775921             -4.890714           
  O                      -6.306933            7.193656             -4.919434           
  H                      -5.876818            6.386052             -5.075891           
  H                      -7.679441            5.712841             -4.702631           
  H                      -8.222908            7.329902             -4.165676           
  H                      -8.192005            6.987732             -5.810565           
*

#Run DFT-D3 single point of the molecule with dimer basis set
$new_job
%base "18-70_DFT_A"
! wB97X-D3 def2-TZVP TIGHTSCF CHELPG PMODEL

%scf
MaxIter 1000
end

* xyz 0 1
  C                      -9.376882            2.477543             -4.713638           
  O                      -8.879101            1.249759             -4.251672           
  H                      -8.504587            1.328272             -3.362079           
  H                      -8.510873            3.150077             -4.795730           
  H                      -9.919677            2.295343             -5.655822           
  H                      -10.081456           2.950234             -3.991283           
  C                    : -7.665083            6.775921             -4.890714           
  O                    : -6.306933            7.193656             -4.919434           
  H                    : -5.876818            6.386052             -5.075891           
  H                    : -7.679441            5.712841             -4.702631           
  H                    : -8.222908            7.329902             -4.165676           
  H                    : -8.192005            6.987732             -5.810565           
*

#Run DFT-D3 single point of the particle with dimer basis set
$new_job
%base "18-70_DFT_B"
! wB97X-D3 def2-TZVP TIGHTSCF CHELPG PMODEL

%scf
MaxIter 1000
end

* xyz 0 1
  C                    : -9.376882            2.477543             -4.713638           
  O                    : -8.879101            1.249759             -4.251672           
  H                    : -8.504587            1.328272             -3.362079           
  H                    : -8.510873            3.150077             -4.795730           
  H                    : -9.919677            2.295343             -5.655822           
  H                    : -10.081456           2.950234             -3.991283           
  C                      -7.665083            6.775921             -4.890714           
  O                      -6.306933            7.193656             -4.919434           
  H                      -5.876818            6.386052             -5.075891           
  H                      -7.679441            5.712841             -4.702631           
  H                      -8.222908            7.329902             -4.165676           
  H                      -8.192005            6.987732             -5.810565           
*
