     # Non-bonded interactions (pair-wise)
     pair_coeff           1          1          lj/cut/coul/long      0.317003             3.539000            
     pair_coeff           1          2          lj/cut/coul/long      0.022215             3.213179            
     pair_coeff           1          3          lj/cut/coul/long      0.272457             3.514475            
     pair_coeff           2          2          lj/cut/coul/long      0.004059             2.486712            
     pair_coeff           2          3          lj/cut/coul/long      0.019754             3.172869            
     pair_coeff           3          3          lj/cut/coul/long      0.234596             3.489064            

     # Stretching interactions
     bond_coeff           1           194.256395           2.081833            
     bond_coeff           2           222.866231           1.797546            
     bond_coeff           3           391.502979           1.089103            

     # Bending interactions
     angle_coeff          1           72.635634            103.625234          
     angle_coeff          2           50.281195            110.840261          
     angle_coeff          3           39.232078            110.307468          

     # Dihedral interactions
     dihedral_coeff       1          opls                  0.251056            -0.335281             0.519771            -0.533195            
     dihedral_coeff       2          opls                  2.545703            -8.218722             1.769951            -0.161374            
