#Run DFT-D3 single point of the dimer
! wB97X-D3 def2-TZVP TIGHTSCF  CHELPG PAL8

%base "96_charges"

%scf
MaxIter 1000
end
%output
  Print[ P_Mayer ] 1
  Print[ P_NatPop ] 1
  Print[ P_Hirshfeld ] 1
  Print[ P_Mulliken ] 1
  Print [ P_Loewdin ] 1
end

* xyz 0 1
  C                      -7.308510            7.454032             -4.615022           
  O                      -8.033384            7.339524             -5.821730           
  H                      -7.957203            6.461520             -6.219535           
  H                      -7.846512            6.916053             -3.835317           
  H                      -6.307834            6.995753             -4.789746           
  H                      -7.130098            8.532339             -4.357535           
*
