#Run DFT-D3 single point of the dimer
! wB97X-D3 def2-TZVP TIGHTSCF  CHELPG PAL8

%base "123_charges"

%scf
MaxIter 1000
end
%output
  Print[ P_Mayer ] 1
  Print[ P_NatPop ] 1
  Print[ P_Hirshfeld ] 1
  Print[ P_Mulliken ] 1
  Print [ P_Loewdin ] 1
end

* xyz 0 1
  C                      -10.972910           -6.746238            -3.779420           
  O                      -10.745204           -7.299983            -2.491039           
  H                      -11.159433           -8.132070            -2.498805           
  H                      -10.359412           -7.235195            -4.481685           
  H                      -12.026014           -6.833219            -3.943103           
  H                      -10.695739           -5.758827            -3.803580           
*
