     # Non-bonded interactions (pair-wise)
     pair_coeff           1          1          lj/cut/coul/long      0.003575             2.478154            
     pair_coeff           1          2          lj/cut/coul/long      0.009346             2.462163            
     pair_coeff           1          3          lj/cut/coul/long      0.021678             3.262640            
     pair_coeff           1          4          lj/cut/coul/long      0.019638             3.131871            
     pair_coeff           1          5          lj/cut/coul/long      0.016178             3.091447            
     pair_coeff           2          2          lj/cut/coul/long      0.024470             2.445635            
     pair_coeff           2          3          lj/cut/coul/long      0.054914             3.258650            
     pair_coeff           2          4          lj/cut/coul/long      0.049849             3.126971            
     pair_coeff           2          5          lj/cut/coul/long      0.041098             3.086216            
     pair_coeff           3          3          lj/cut/coul/long      0.378637             3.601095            
     pair_coeff           3          4          lj/cut/coul/long      0.305083             3.524932            
     pair_coeff           3          5          lj/cut/coul/long      0.241390             3.502919            
     pair_coeff           4          4          lj/cut/coul/long      0.250509             3.439526            
     pair_coeff           4          5          lj/cut/coul/long      0.199420             3.414578            
     pair_coeff           5          5          lj/cut/coul/long      0.159068             3.388683            

     # Stretching interactions
     bond_coeff           1           391.340547           1.087392            
     bond_coeff           2           386.235503           1.090279            
     bond_coeff           3           189.917543           1.946622            
     bond_coeff           4           322.903499           1.511358            

     # Bending interactions
     angle_coeff          1           40.645729            108.998656          
     angle_coeff          2           47.754821            105.608473          
     angle_coeff          3           41.383141            111.986695          
     angle_coeff          4           40.431476            108.280771          
     angle_coeff          5           46.448821            111.089521          
     angle_coeff          6           65.694930            111.701647          

     # Dihedral interactions
     dihedral_coeff       1          opls                 -0.215302             0.118856             0.146403            -0.065921            
     dihedral_coeff       2          opls                  0.283739            -0.339272             0.863700            -0.107549            
