     # Non-bonded interactions (pair-wise)
     pair_coeff           1          1          lj/cut/coul/long      0.024470             2.445635            
     pair_coeff           1          2          lj/cut/coul/long      0.022842             2.461744            
     pair_coeff           1          3          lj/cut/coul/long      0.012628             2.458116            
     pair_coeff           1          4          lj/cut/coul/long      0.017794             3.288025            
     pair_coeff           1          5          lj/cut/coul/long      0.040450             3.066039            
     pair_coeff           1          6          lj/cut/coul/long      0.038770             3.018354            
     pair_coeff           1          7          lj/cut/coul/long      0.037530             3.016965            
     pair_coeff           1          8          lj/cut/coul/long      0.048826             3.068919            
     pair_coeff           1          9          lj/cut/coul/long      0.034106             2.711126            
     pair_coeff           1          10         lj/cut/coul/long      0.064639             2.583449            
     pair_coeff           2          2          lj/cut/coul/long      0.021355             2.477342            
     pair_coeff           2          3          lj/cut/coul/long      0.011802             2.473827            
     pair_coeff           2          4          lj/cut/coul/long      0.017161             3.291743            
     pair_coeff           2          5          lj/cut/coul/long      0.038874             3.071304            
     pair_coeff           2          6          lj/cut/coul/long      0.037222             3.024046            
     pair_coeff           2          7          lj/cut/coul/long      0.036030             3.022670            
     pair_coeff           2          8          lj/cut/coul/long      0.046926             3.074160            
     pair_coeff           2          9          lj/cut/coul/long      0.032415             2.720821            
     pair_coeff           2          10         lj/cut/coul/long      0.061001             2.595752            
     pair_coeff           3          3          lj/cut/coul/long      0.006523             2.470287            
     pair_coeff           3          4          lj/cut/coul/long      0.009418             3.290897            
     pair_coeff           3          5          lj/cut/coul/long      0.021352             3.070107            
     pair_coeff           3          6          lj/cut/coul/long      0.020449             3.022753            
     pair_coeff           3          7          lj/cut/coul/long      0.019794             3.021373            
     pair_coeff           3          8          lj/cut/coul/long      0.025774             3.072968            
     pair_coeff           3          9          lj/cut/coul/long      0.017849             2.718625            
     pair_coeff           3          10         lj/cut/coul/long      0.033642             2.592971            
     pair_coeff           4          4          lj/cut/coul/long      0.041739             3.636666            
     pair_coeff           4          5          lj/cut/coul/long      0.076741             3.513237            
     pair_coeff           4          6          lj/cut/coul/long      0.069716             3.489624            
     pair_coeff           4          7          lj/cut/coul/long      0.067377             3.488952            
     pair_coeff           4          8          lj/cut/coul/long      0.092923             3.514697            
     pair_coeff           4          9          lj/cut/coul/long      0.040201             3.363035            
     pair_coeff           4          10         lj/cut/coul/long      0.061269             3.323211            
     pair_coeff           5          5          lj/cut/coul/long      0.148989             3.363338            
     pair_coeff           5          6          lj/cut/coul/long      0.137043             3.333821            
     pair_coeff           5          7          lj/cut/coul/long      0.132495             3.332976            
     pair_coeff           5          8          lj/cut/coul/long      0.180272             3.365153            
     pair_coeff           5          9          lj/cut/coul/long      0.085732             3.169547            
     pair_coeff           5          10         lj/cut/coul/long      0.134931             3.115280            
     pair_coeff           6          6          lj/cut/coul/long      0.126427             3.302936            
     pair_coeff           6          7          lj/cut/coul/long      0.122242             3.302051            
     pair_coeff           6          8          lj/cut/coul/long      0.165788             3.335717            
     pair_coeff           6          9          lj/cut/coul/long      0.080733             3.129447            
     pair_coeff           6          10         lj/cut/coul/long      0.128174             3.071408            
     pair_coeff           7          7          lj/cut/coul/long      0.118196             3.301165            
     pair_coeff           7          8          lj/cut/coul/long      0.160286             3.334875            
     pair_coeff           7          9          lj/cut/coul/long      0.078109             3.128288            
     pair_coeff           7          10         lj/cut/coul/long      0.124041             3.070134            
     pair_coeff           8          8          lj/cut/coul/long      0.218126             3.366963            
     pair_coeff           8          9          lj/cut/coul/long      0.103590             3.171987            
     pair_coeff           8          10         lj/cut/coul/long      0.162955             3.117940            
     pair_coeff           9          9          lj/cut/coul/long      0.060378             2.888018            
     pair_coeff           9          10         lj/cut/coul/long      0.103469             2.798587            
     pair_coeff           10         10         lj/cut/coul/long      0.185310             2.692064            

     # Stretching interactions
     bond_coeff           1           383.330204           1.090743            
     bond_coeff           2           404.165307           1.083602            
     bond_coeff           3           360.575632           1.098824            
     bond_coeff           4           339.463433           1.488615            
     bond_coeff           5           678.174216           1.327158            
     bond_coeff           6           307.823584           1.491450            
     bond_coeff           7           428.181669           1.339771            
     bond_coeff           8           923.459581           1.204758            
     bond_coeff           9           341.143301           1.425728            

     # Bending interactions
     angle_coeff          1           40.713089            107.834390          
     angle_coeff          2           43.611200            111.091643          
     angle_coeff          3           31.398720            117.702483          
     angle_coeff          4           33.488829            120.370509          
     angle_coeff          5           40.646717            108.276775          
     angle_coeff          6           55.152212            111.151511          
     angle_coeff          7           60.039420            112.273331          
     angle_coeff          8           49.311307            123.867920          
     angle_coeff          9           83.191613            123.953702          
     angle_coeff          10          92.527664            114.844697          
     angle_coeff          11          86.895544            121.060170          
     angle_coeff          12          75.587574            114.701500          
     angle_coeff          13          158.160372           123.054375          

     # Dihedral interactions
     dihedral_coeff       1          opls                  0.128196             0.549069            -0.712225            -0.064495            
     dihedral_coeff       2          opls                 -0.181164            -0.533918            -0.307986            -0.292114            
     dihedral_coeff       3          harmonic              7.501006            -1                    2                   
     dihedral_coeff       4          harmonic              7.656320            -1                    2                   
     dihedral_coeff       5          opls                  0.424220            -1.075932             0.121098            -1.075932            
     dihedral_coeff       6          opls                  0.426914             4.303140             0.036237            -0.342821            
     dihedral_coeff       7          opls                  0.145926             1.128008            -0.192643            -0.211202            
     dihedral_coeff       8          opls                 -0.483473             1.093531            -0.222535             0.152655            
     dihedral_coeff       9          opls                 -0.502058             1.065346            -0.112681            -0.183843            
     dihedral_coeff       10         opls                  0.146836             1.029787            -0.153634             0.168157            
     dihedral_coeff       11         opls                 -1.982920             4.531703            -1.148195             0.130182            
