     # Non-bonded interactions (pair-wise)
     pair_coeff           1          1          lj/cut/coul/long      0.024470             2.445635            
     pair_coeff           1          2          lj/cut/coul/long      0.004938             2.422778            
     pair_coeff           1          3          lj/cut/coul/long      0.057640             3.020942            
     pair_coeff           1          4          lj/cut/coul/long      0.027446             3.193652            
     pair_coeff           1          5          lj/cut/coul/long      0.049263             3.028626            
     pair_coeff           1          6          lj/cut/coul/long      0.073330             2.486985            
     pair_coeff           2          2          lj/cut/coul/long      0.001000             2.398789            
     pair_coeff           2          3          lj/cut/coul/long      0.011168             3.013127            
     pair_coeff           2          4          lj/cut/coul/long      0.005294             3.187745            
     pair_coeff           2          5          lj/cut/coul/long      0.009542             3.020910            
     pair_coeff           2          6          lj/cut/coul/long      0.014717             2.466014            
     pair_coeff           3          3          lj/cut/coul/long      0.280652             3.306234            
     pair_coeff           3          4          lj/cut/coul/long      0.151617             3.422487            
     pair_coeff           3          5          lj/cut/coul/long      0.241390             3.311140            
     pair_coeff           3          6          lj/cut/coul/long      0.185485             3.035760            
     pair_coeff           4          4          lj/cut/coul/long      0.084885             3.521812            
     pair_coeff           4          5          lj/cut/coul/long      0.130623             3.426617            
     pair_coeff           4          6          lj/cut/coul/long      0.089053             3.204912            
     pair_coeff           5          5          lj/cut/coul/long      0.207637             3.316010            
     pair_coeff           5          6          lj/cut/coul/long      0.158597             3.043259            
     pair_coeff           6          6          lj/cut/coul/long      0.221782             2.525159            

     # Stretching interactions
     bond_coeff           1           383.532268           1.091469            
     bond_coeff           2           552.857749           1.001454            
     bond_coeff           3           304.077262           1.510872            
     bond_coeff           4           471.291935           1.360248            
     bond_coeff           5           882.814508           1.210921            

     # Bending interactions
     angle_coeff          1           39.468349            109.609291          
     angle_coeff          2           45.856190            109.075603          
     angle_coeff          3           33.552411            119.759348          
     angle_coeff          4           32.714553            121.628554          
     angle_coeff          5           50.216534            114.356870          
     angle_coeff          6           68.829633            123.294381          
     angle_coeff          7           77.249354            122.209935          

     # Dihedral interactions
     dihedral_coeff       1          opls                  0.035310             0.056927            -0.561871             0.177996            
     dihedral_coeff       2          opls                  0.033470             0.046602            -0.454240             0.369414            
     dihedral_coeff       3          opls                  0.097355             3.611447             2.109372            -2.402588            
     dihedral_coeff       4          opls                 -0.980027             2.283212             1.061119             0.927447            
