     # Non-bonded interactions (pair-wise)
     pair_coeff           1          1          lj/cut/coul/long      0.024470             2.445635            
     pair_coeff           1          2          lj/cut/coul/long      0.003317             2.229575            
     pair_coeff           1          3          lj/cut/coul/long      0.023305             3.455751            
     pair_coeff           1          4          lj/cut/coul/long      0.036583             3.052203            
     pair_coeff           1          5          lj/cut/coul/long      0.034855             2.827321            
     pair_coeff           2          2          lj/cut/coul/long      0.001000             1.779072            
     pair_coeff           2          3          lj/cut/coul/long      0.001916             3.424223            
     pair_coeff           2          4          lj/cut/coul/long      0.003209             2.991970            
     pair_coeff           2          5          lj/cut/coul/long      0.003301             2.736222            
     pair_coeff           3          3          lj/cut/coul/long      0.094254             3.837234            
     pair_coeff           3          4          lj/cut/coul/long      0.097586             3.632580            
     pair_coeff           3          5          lj/cut/coul/long      0.067485             3.549533            
     pair_coeff           4          4          lj/cut/coul/long      0.119091             3.345888            
     pair_coeff           4          5          lj/cut/coul/long      0.090993             3.215503            
     pair_coeff           5          5          lj/cut/coul/long      0.074962             3.051656            

     # Stretching interactions
     bond_coeff           1           381.739730           1.091779            
     bond_coeff           2           603.593583           0.959034            
     bond_coeff           3           288.721497           1.522615            
     bond_coeff           4           317.451450           1.425137            

     # Bending interactions
     angle_coeff          1           39.250579            108.174262          
     angle_coeff          2           52.360485            109.722233          
     angle_coeff          3           43.978594            106.271060          
     angle_coeff          4           63.292302            111.137971          
     angle_coeff          5           79.922794            108.839436          

     # Dihedral interactions
     dihedral_coeff       1          opls                  0.206397             0.072778             0.855616            -0.014461            
     dihedral_coeff       2          opls                 -0.624952            -0.229033            -0.521664            -0.052848            
     dihedral_coeff       3          opls                  0.019178            -0.067665             0.416413            -0.276956            
