#Run DFT-D3 single point of the dimer
! wB97X-D3 def2-TZVP TIGHTSCF CHELPG PMODEL PAL8

%base "11-27_DFT_AB"

%scf
MaxIter 1000
end

* xyz 0 1
  C                      -8.448119            2.442185             -5.118233           
  O                      -7.831945            1.753476             -4.059607           
  H                      -8.251878            0.862124             -3.916511           
  H                      -9.518605            2.289483             -5.032777           
  H                      -8.197066            3.464053             -5.152794           
  H                      -8.176135            2.038059             -6.035437           
  C                      -10.601700           -1.340153            -6.515866           
  O                      -9.853865            -2.173804            -5.554064           
  H                      -10.156461           -2.016928            -4.673614           
  H                      -10.217419           -0.365535            -6.397053           
  H                      -10.391301           -1.669020            -7.565933           
  H                      -11.635919           -1.467223            -6.354808           
*

#Run DFT-D3 single point of the molecule with dimer basis set
$new_job
%base "11-27_DFT_A"
! wB97X-D3 def2-TZVP TIGHTSCF CHELPG PMODEL

%scf
MaxIter 1000
end

* xyz 0 1
  C                      -8.448119            2.442185             -5.118233           
  O                      -7.831945            1.753476             -4.059607           
  H                      -8.251878            0.862124             -3.916511           
  H                      -9.518605            2.289483             -5.032777           
  H                      -8.197066            3.464053             -5.152794           
  H                      -8.176135            2.038059             -6.035437           
  C                    : -10.601700           -1.340153            -6.515866           
  O                    : -9.853865            -2.173804            -5.554064           
  H                    : -10.156461           -2.016928            -4.673614           
  H                    : -10.217419           -0.365535            -6.397053           
  H                    : -10.391301           -1.669020            -7.565933           
  H                    : -11.635919           -1.467223            -6.354808           
*

#Run DFT-D3 single point of the particle with dimer basis set
$new_job
%base "11-27_DFT_B"
! wB97X-D3 def2-TZVP TIGHTSCF CHELPG PMODEL

%scf
MaxIter 1000
end

* xyz 0 1
  C                    : -8.448119            2.442185             -5.118233           
  O                    : -7.831945            1.753476             -4.059607           
  H                    : -8.251878            0.862124             -3.916511           
  H                    : -9.518605            2.289483             -5.032777           
  H                    : -8.197066            3.464053             -5.152794           
  H                    : -8.176135            2.038059             -6.035437           
  C                      -10.601700           -1.340153            -6.515866           
  O                      -9.853865            -2.173804            -5.554064           
  H                      -10.156461           -2.016928            -4.673614           
  H                      -10.217419           -0.365535            -6.397053           
  H                      -10.391301           -1.669020            -7.565933           
  H                      -11.635919           -1.467223            -6.354808           
*
