#Run DFT-D3 single point of the dimer
! wB97X-D3 def2-TZVP TIGHTSCF CHELPG PMODEL PAL8

%base "5-88_DFT_AB"

%scf
MaxIter 1000
end

* xyz 0 1
  C                      3.523408             -5.923778            2.070169            
  O                      3.834441             -4.576411            1.836301            
  H                      4.763971             -4.562166            1.509061            
  H                      2.729272             -5.991882            2.856450            
  H                      3.330591             -6.484672            1.252621            
  H                      4.446997             -6.457884            2.510366            
  C                      6.493591             -7.114689            5.665414            
  O                      7.749158             -7.200561            5.023627            
  H                      8.417499             -7.256658            5.702624            
  H                      6.411173             -7.828988            6.442911            
  H                      6.322881             -6.124128            6.161306            
  H                      5.695959             -7.314876            5.013645            
*

#Run DFT-D3 single point of the molecule with dimer basis set
$new_job
%base "5-88_DFT_A"
! wB97X-D3 def2-TZVP TIGHTSCF CHELPG PMODEL

%scf
MaxIter 1000
end

* xyz 0 1
  C                      3.523408             -5.923778            2.070169            
  O                      3.834441             -4.576411            1.836301            
  H                      4.763971             -4.562166            1.509061            
  H                      2.729272             -5.991882            2.856450            
  H                      3.330591             -6.484672            1.252621            
  H                      4.446997             -6.457884            2.510366            
  C                    : 6.493591             -7.114689            5.665414            
  O                    : 7.749158             -7.200561            5.023627            
  H                    : 8.417499             -7.256658            5.702624            
  H                    : 6.411173             -7.828988            6.442911            
  H                    : 6.322881             -6.124128            6.161306            
  H                    : 5.695959             -7.314876            5.013645            
*

#Run DFT-D3 single point of the particle with dimer basis set
$new_job
%base "5-88_DFT_B"
! wB97X-D3 def2-TZVP TIGHTSCF CHELPG PMODEL

%scf
MaxIter 1000
end

* xyz 0 1
  C                    : 3.523408             -5.923778            2.070169            
  O                    : 3.834441             -4.576411            1.836301            
  H                    : 4.763971             -4.562166            1.509061            
  H                    : 2.729272             -5.991882            2.856450            
  H                    : 3.330591             -6.484672            1.252621            
  H                    : 4.446997             -6.457884            2.510366            
  C                      6.493591             -7.114689            5.665414            
  O                      7.749158             -7.200561            5.023627            
  H                      8.417499             -7.256658            5.702624            
  H                      6.411173             -7.828988            6.442911            
  H                      6.322881             -6.124128            6.161306            
  H                      5.695959             -7.314876            5.013645            
*
