#Run DFT-D3 single point of the dimer
! wB97X-D3 def2-TZVP TIGHTSCF CHELPG PMODEL PAL8

%base "6-181_DFT_AB"

%scf
MaxIter 1000
end

* xyz 0 1
  C                      -4.140601            4.017611             -3.706493           
  O                      -4.263904            3.967901             -2.364951           
  H                      -5.079723            4.217883             -1.945731           
  H                      -4.671570            3.223314             -4.151186           
  H                      -4.523097            4.919380             -4.129298           
  H                      -3.104929            3.963434             -3.947013           
  C                      -1.975254            6.692017             -1.033404           
  O                      -2.120310            5.270043             -0.797083           
  H                      -2.657110            4.902343             -1.459374           
  H                      -2.902032            7.264502             -1.136159           
  H                      -1.451563            7.112902             -0.276647           
  H                      -1.472944            6.901009             -1.961477           
*

#Run DFT-D3 single point of the molecule with dimer basis set
$new_job
%base "6-181_DFT_A"
! wB97X-D3 def2-TZVP TIGHTSCF CHELPG PMODEL

%scf
MaxIter 1000
end

* xyz 0 1
  C                      -4.140601            4.017611             -3.706493           
  O                      -4.263904            3.967901             -2.364951           
  H                      -5.079723            4.217883             -1.945731           
  H                      -4.671570            3.223314             -4.151186           
  H                      -4.523097            4.919380             -4.129298           
  H                      -3.104929            3.963434             -3.947013           
  C                    : -1.975254            6.692017             -1.033404           
  O                    : -2.120310            5.270043             -0.797083           
  H                    : -2.657110            4.902343             -1.459374           
  H                    : -2.902032            7.264502             -1.136159           
  H                    : -1.451563            7.112902             -0.276647           
  H                    : -1.472944            6.901009             -1.961477           
*

#Run DFT-D3 single point of the particle with dimer basis set
$new_job
%base "6-181_DFT_B"
! wB97X-D3 def2-TZVP TIGHTSCF CHELPG PMODEL

%scf
MaxIter 1000
end

* xyz 0 1
  C                    : -4.140601            4.017611             -3.706493           
  O                    : -4.263904            3.967901             -2.364951           
  H                    : -5.079723            4.217883             -1.945731           
  H                    : -4.671570            3.223314             -4.151186           
  H                    : -4.523097            4.919380             -4.129298           
  H                    : -3.104929            3.963434             -3.947013           
  C                      -1.975254            6.692017             -1.033404           
  O                      -2.120310            5.270043             -0.797083           
  H                      -2.657110            4.902343             -1.459374           
  H                      -2.902032            7.264502             -1.136159           
  H                      -1.451563            7.112902             -0.276647           
  H                      -1.472944            6.901009             -1.961477           
*
