     # Non-bonded interactions (pair-wise)
     pair_coeff           1          1          lj/cut/coul/long      0.024470             2.445635            
     pair_coeff           1          2          lj/cut/coul/long      0.022842             2.461744            
     pair_coeff           1          3          lj/cut/coul/long      0.004947             2.446313            
     pair_coeff           1          4          lj/cut/coul/long      0.033576             3.071558            
     pair_coeff           1          5          lj/cut/coul/long      0.043327             3.026456            
     pair_coeff           1          6          lj/cut/coul/long      0.040456             3.089402            
     pair_coeff           1          7          lj/cut/coul/long      0.028888             3.110904            
     pair_coeff           1          8          lj/cut/coul/long      0.007442             2.970363            
     pair_coeff           1          9          lj/cut/coul/long      0.064639             2.583449            
     pair_coeff           2          2          lj/cut/coul/long      0.021355             2.477342            
     pair_coeff           2          3          lj/cut/coul/long      0.004618             2.462400            
     pair_coeff           2          4          lj/cut/coul/long      0.032271             3.076777            
     pair_coeff           2          5          lj/cut/coul/long      0.041605             3.032072            
     pair_coeff           2          6          lj/cut/coul/long      0.038898             3.094472            
     pair_coeff           2          7          lj/cut/coul/long      0.027787             3.115802            
     pair_coeff           2          8          lj/cut/coul/long      0.007137             2.976527            
     pair_coeff           2          9          lj/cut/coul/long      0.061001             2.595752            
     pair_coeff           3          3          lj/cut/coul/long      0.001000             2.446990            
     pair_coeff           3          4          lj/cut/coul/long      0.006796             3.071775            
     pair_coeff           3          5          lj/cut/coul/long      0.008769             3.026689            
     pair_coeff           3          6          lj/cut/coul/long      0.008189             3.089613            
     pair_coeff           3          7          lj/cut/coul/long      0.005847             3.111108            
     pair_coeff           3          8          lj/cut/coul/long      0.001506             2.970619            
     pair_coeff           3          9          lj/cut/coul/long      0.013073             2.583965            
     pair_coeff           4          4          lj/cut/coul/long      0.103604             3.370283            
     pair_coeff           4          5          lj/cut/coul/long      0.128597             3.342375            
     pair_coeff           4          6          lj/cut/coul/long      0.126681             3.381571            
     pair_coeff           4          7          lj/cut/coul/long      0.092029             3.395355            
     pair_coeff           4          8          lj/cut/coul/long      0.020970             3.308951            
     pair_coeff           4          9          lj/cut/coul/long      0.112111             3.120379            
     pair_coeff           5          5          lj/cut/coul/long      0.160038             3.313251            
     pair_coeff           5          6          lj/cut/coul/long      0.157081             3.354137            
     pair_coeff           5          7          lj/cut/coul/long      0.113976             3.368488            
     pair_coeff           5          8          lj/cut/coul/long      0.026185             3.278283            
     pair_coeff           5          9          lj/cut/coul/long      0.143469             3.078838            
     pair_coeff           6          6          lj/cut/coul/long      0.154959             3.392674            
     pair_coeff           6          7          lj/cut/coul/long      0.112625             3.406237            
     pair_coeff           6          8          lj/cut/coul/long      0.025582             3.321313            
     pair_coeff           6          9          lj/cut/coul/long      0.135501             3.136891            
     pair_coeff           7          7          lj/cut/coul/long      0.081902             3.419535            
     pair_coeff           7          8          lj/cut/coul/long      0.018534             3.336376            
     pair_coeff           7          9          lj/cut/coul/long      0.097104             3.156844            
     pair_coeff           8          8          lj/cut/coul/long      0.004303             3.241345            
     pair_coeff           8          9          lj/cut/coul/long      0.024360             3.027599            
     pair_coeff           9          9          lj/cut/coul/long      0.185310             2.692064            

     # Stretching interactions
     bond_coeff           1           399.132795           1.085830            
     bond_coeff           2           410.184519           1.081618            
     bond_coeff           3           390.261910           1.088635            
     bond_coeff           4           321.903261           1.502210            
     bond_coeff           5           377.803910           1.355330            
     bond_coeff           6           935.252065           1.201225            
     bond_coeff           7           708.479994           1.323998            
     bond_coeff           8           402.152426           1.373031            

     # Bending interactions
     angle_coeff          1           34.984559            110.155387          
     angle_coeff          2           46.502240            109.566563          
     angle_coeff          3           29.265471            119.447928          
     angle_coeff          4           32.495118            120.691682          
     angle_coeff          5           33.374213            122.024330          
     angle_coeff          6           55.206395            114.841006          
     angle_coeff          7           92.104345            118.021217          
     angle_coeff          8           67.798659            122.950723          
     angle_coeff          9           70.635947            112.248687          
     angle_coeff          10          48.120950            124.752204          
     angle_coeff          11          107.028429           122.916489          

     # Dihedral interactions
     dihedral_coeff       1          opls                 -0.115776             0.124458            -0.020315             0.104032            
     dihedral_coeff       2          opls                 -0.091188             0.085556            -0.064479             0.092972            
     dihedral_coeff       3          harmonic              4.419706            -1                    2                   
     dihedral_coeff       4          harmonic              8.591734            -1                    2                   
     dihedral_coeff       5          opls                  0.710211             1.666568            -0.270141            -0.952955            
     dihedral_coeff       6          opls                 -1.187366             1.856667            -1.138291             1.169411            
     dihedral_coeff       7          opls                  1.236756             4.718011            -0.321761             1.221581            
     dihedral_coeff       8          opls                 -3.008924             4.562898            -0.205819            -1.027808            
