     # Non-bonded interactions (pair-wise)
     pair_coeff           1          1          lj/cut/coul/long      0.024470             2.445635            
     pair_coeff           1          2          lj/cut/coul/long      0.018597             2.443774            
     pair_coeff           1          3          lj/cut/coul/long      0.039399             3.057702            
     pair_coeff           1          4          lj/cut/coul/long      0.040816             3.068688            
     pair_coeff           1          5          lj/cut/coul/long      0.040522             3.067015            
     pair_coeff           1          6          lj/cut/coul/long      0.028818             3.283517            
     pair_coeff           1          7          lj/cut/coul/long      0.035734             3.010983            
     pair_coeff           1          8          lj/cut/coul/long      0.060704             2.655085            
     pair_coeff           2          2          lj/cut/coul/long      0.014134             2.441906            
     pair_coeff           2          3          lj/cut/coul/long      0.029842             3.057094            
     pair_coeff           2          4          lj/cut/coul/long      0.030915             3.068090            
     pair_coeff           2          5          lj/cut/coul/long      0.030692             3.066416            
     pair_coeff           2          6          lj/cut/coul/long      0.021818             3.283091            
     pair_coeff           2          7          lj/cut/coul/long      0.027069             3.010326            
     pair_coeff           2          8          lj/cut/coul/long      0.046053             2.653852            
     pair_coeff           3          3          lj/cut/coul/long      0.139401             3.352830            
     pair_coeff           3          4          lj/cut/coul/long      0.145731             3.359787            
     pair_coeff           3          5          lj/cut/coul/long      0.144481             3.358724            
     pair_coeff           3          6          lj/cut/coul/long      0.119636             3.505780            
     pair_coeff           3          7          lj/cut/coul/long      0.121441             3.323842            
     pair_coeff           3          8          lj/cut/coul/long      0.137145             3.137356            
     pair_coeff           4          4          lj/cut/coul/long      0.152372             3.366672            
     pair_coeff           4          5          lj/cut/coul/long      0.151062             3.365620            
     pair_coeff           4          6          lj/cut/coul/long      0.125432             3.511353            
     pair_coeff           4          7          lj/cut/coul/long      0.126871             3.331105            
     pair_coeff           4          8          lj/cut/coul/long      0.142510             3.147028            
     pair_coeff           5          5          lj/cut/coul/long      0.149763             3.364567            
     pair_coeff           5          6          lj/cut/coul/long      0.124302             3.510501            
     pair_coeff           5          7          lj/cut/coul/long      0.125796             3.329996            
     pair_coeff           5          8          lj/cut/coul/long      0.141417             3.145554            
     pair_coeff           6          6          lj/cut/coul/long      0.108665             3.631217            
     pair_coeff           6          7          lj/cut/coul/long      0.102929             3.482706            
     pair_coeff           6          8          lj/cut/coul/long      0.105562             3.340527            
     pair_coeff           7          7          lj/cut/coul/long      0.106098             3.293531            
     pair_coeff           7          8          lj/cut/coul/long      0.122688             3.096505            
     pair_coeff           8          8          lj/cut/coul/long      0.177478             2.804620            

     # Stretching interactions
     bond_coeff           1           377.846244           1.093155            
     bond_coeff           2           368.488176           1.095580            
     bond_coeff           3           365.823569           1.096853            
     bond_coeff           4           377.294479           1.093137            
     bond_coeff           5           313.531893           1.522660            
     bond_coeff           6           308.486676           1.522841            
     bond_coeff           7           298.116337           1.530219            
     bond_coeff           8           362.824583           1.460940            
     bond_coeff           9           1463.747527          1.147208            

     # Bending interactions
     angle_coeff          1           41.552646            107.471780          
     angle_coeff          2           43.036920            110.866477          
     angle_coeff          3           43.628825            106.010166          
     angle_coeff          4           45.160055            109.784102          
     angle_coeff          5           44.612128            109.127713          
     angle_coeff          6           43.773149            105.937020          
     angle_coeff          7           44.174893            109.305214          
     angle_coeff          8           44.174893            109.305214          
     angle_coeff          9           39.433372            106.913748          
     angle_coeff          10          43.213632            110.230679          
     angle_coeff          11          72.023371            108.128688          
     angle_coeff          12          55.398823            112.803517          
     angle_coeff          13          53.640938            113.189368          
     angle_coeff          14          51.080633            112.912265          
     angle_coeff          15          25.863585            179.679785          

     # Dihedral interactions
     dihedral_coeff       1          opls                  0.120045            -0.042386             0.226783            -0.014429            
     dihedral_coeff       2          opls                 -0.263438            -0.060328             0.490572            -0.025392            
     dihedral_coeff       3          opls                  0.108399            -0.919892             0.348516            -0.131845            
     dihedral_coeff       4          opls                 -0.043668             0.378979             0.427925            -0.025575            
     dihedral_coeff       5          opls                 -0.260122             0.645301             0.411345             0.001184            
     dihedral_coeff       6          opls                 -0.042702             0.085525             0.221641            -0.031588            
     dihedral_coeff       7          opls                 -0.049013            -0.052832             0.485378             0.041476            
     dihedral_coeff       8          opls                 -0.051155            -0.093571             0.369485            -0.118166            
     dihedral_coeff       9          opls                  0.000000             0.000000             0.000000             0.000000            
     dihedral_coeff       10         opls                 -0.656350             1.366290             0.241202            -0.055784            
     dihedral_coeff       11         opls                 -0.075769            -0.598982             0.625363            -0.096344            
     dihedral_coeff       12         opls                  0.000000             0.000000             0.000000             0.000000            
