#Run DFT-D3 single point of the dimer
! wB97X-D3 def2-TZVP TIGHTSCF CHELPG PMODEL PAL8

%base "11-4_DFT_AB"

%scf
MaxIter 1000
end

* xyz 0 1
  C                      -2.148013            2.129847             1.911966            
  O                      -0.703100            2.202816             2.039990            
  H                      -0.327344            2.930984             1.522731            
  H                      -2.414317            2.238284             0.914172            
  H                      -2.582117            1.155431             2.198879            
  H                      -2.594961            2.946416             2.554262            
  C                      1.722889             4.769203             0.376616            
  O                      0.399741             4.545588             0.899651            
  H                      -0.141667            4.517815             0.109783            
  H                      2.065816             3.898530             -0.238405           
  H                      1.754386             5.714182             -0.138334           
  H                      2.523821             4.837285             1.055451            
*

#Run DFT-D3 single point of the molecule with dimer basis set
$new_job
%base "11-4_DFT_A"
! wB97X-D3 def2-TZVP TIGHTSCF CHELPG PMODEL

%scf
MaxIter 1000
end

* xyz 0 1
  C                      -2.148013            2.129847             1.911966            
  O                      -0.703100            2.202816             2.039990            
  H                      -0.327344            2.930984             1.522731            
  H                      -2.414317            2.238284             0.914172            
  H                      -2.582117            1.155431             2.198879            
  H                      -2.594961            2.946416             2.554262            
  C                    : 1.722889             4.769203             0.376616            
  O                    : 0.399741             4.545588             0.899651            
  H                    : -0.141667            4.517815             0.109783            
  H                    : 2.065816             3.898530             -0.238405           
  H                    : 1.754386             5.714182             -0.138334           
  H                    : 2.523821             4.837285             1.055451            
*

#Run DFT-D3 single point of the particle with dimer basis set
$new_job
%base "11-4_DFT_B"
! wB97X-D3 def2-TZVP TIGHTSCF CHELPG PMODEL

%scf
MaxIter 1000
end

* xyz 0 1
  C                    : -2.148013            2.129847             1.911966            
  O                    : -0.703100            2.202816             2.039990            
  H                    : -0.327344            2.930984             1.522731            
  H                    : -2.414317            2.238284             0.914172            
  H                    : -2.582117            1.155431             2.198879            
  H                    : -2.594961            2.946416             2.554262            
  C                      1.722889             4.769203             0.376616            
  O                      0.399741             4.545588             0.899651            
  H                      -0.141667            4.517815             0.109783            
  H                      2.065816             3.898530             -0.238405           
  H                      1.754386             5.714182             -0.138334           
  H                      2.523821             4.837285             1.055451            
*
