# Geometry optimization for OKKJLVBELUTLKV-UHFFFAOYSA-N
! wB97X-D3 def2-TZVP TIGHTSCF Opt Grid5 FinalGrid6 CHELPG PAL4

%geom MaxIter 500
end


%base "geo_opt"

* xyz 0 1
  C    1.06967000       0.04984000      -0.07058000     
  O    2.46782000       0.06645000      -0.06927000     
  H    2.74819000      -0.49284000      -0.83954000     
  H    0.70240000       0.66451000       0.77684000     
  H    0.67933000       0.49024000      -1.01362000     
  H    0.69589000      -0.98811000       0.06587000     
*
