#Run DFT geometry optimization
! wB97X-D3 def2-TZVP TIGHTSCF Grid5 FinalGrid6 Opt CHELPG PAL4

%base "6_geo_opt"
%geom MaxIter 500
end

%geom
  Constraints
    { B 2 1 C }
  end
end


* xyz 0 1
  C                    3.011347             -1.180819            0.598444            
  O                    4.394712             -1.127972            0.874259            
  H                    4.772157             -0.379100            0.412541            
  H                    2.806474             -1.318887            -0.469398           
  H                    2.611671             -2.040187            1.135850            
  H                    2.484797             -0.284413            0.945611            
*
