     # Non-bonded interactions (pair-wise)
     pair_coeff           1          1          lj/cut/coul/long      0.224413             3.507673            
     pair_coeff           1          2          lj/cut/coul/long      0.250229             3.462717            
     pair_coeff           1          3          lj/cut/coul/long      0.009518             3.188590            
     pair_coeff           1          4          lj/cut/coul/long      0.019225             3.186493            
     pair_coeff           1          5          lj/cut/coul/long      0.185110             3.491287            
     pair_coeff           1          6          lj/cut/coul/long      0.170526             3.484872            
     pair_coeff           2          2          lj/cut/coul/long      0.280833             3.414637            
     pair_coeff           2          3          lj/cut/coul/long      0.011316             3.114244            
     pair_coeff           2          4          lj/cut/coul/long      0.022870             3.111884            
     pair_coeff           2          5          lj/cut/coul/long      0.206879             3.445222            
     pair_coeff           2          6          lj/cut/coul/long      0.190756             3.438364            
     pair_coeff           3          3          lj/cut/coul/long      0.001000             2.491791            
     pair_coeff           3          4          lj/cut/coul/long      0.002047             2.484554            
     pair_coeff           3          5          lj/cut/coul/long      0.008027             3.161948            
     pair_coeff           3          6          lj/cut/coul/long      0.007462             3.151379            
     pair_coeff           4          4          lj/cut/coul/long      0.004193             2.477211            
     pair_coeff           4          5          lj/cut/coul/long      0.016218             3.159760            
     pair_coeff           4          6          lj/cut/coul/long      0.015077             3.149155            
     pair_coeff           5          5          lj/cut/coul/long      0.152815             3.474507            
     pair_coeff           5          6          lj/cut/coul/long      0.140821             3.467934            
     pair_coeff           6          6          lj/cut/coul/long      0.129786             3.461299            

     # Stretching interactions
     bond_coeff           1           228.383590           1.767466            
     bond_coeff           2           241.167576           1.773853            
     bond_coeff           3           395.126990           1.086229            
     bond_coeff           4           391.911630           1.087866            
     bond_coeff           5           305.781336           1.516217            

     # Bending interactions
     angle_coeff          1           85.265674            110.649567          
     angle_coeff          2           49.606301            107.148845          
     angle_coeff          3           69.319245            111.919412          
     angle_coeff          4           50.019402            108.487566          
     angle_coeff          5           71.478418            111.369010          
     angle_coeff          6           40.646788            111.423733          
     angle_coeff          7           39.045059            109.782350          
     angle_coeff          8           45.195314            109.133172          

     # Dihedral interactions
     dihedral_coeff       1          opls                  1.241813            -0.916429             1.945051            -0.019181            
     dihedral_coeff       2          opls                 -0.761772             0.078395             0.568838            -0.110109            
     dihedral_coeff       3          opls                 -0.998910             0.799276             0.769411            -0.373006            
     dihedral_coeff       4          opls                  0.409266            -0.025651            -0.645805            -0.089014            
