     # Non-bonded interactions (pair-wise)
     pair_coeff           1          1          lj/cut/coul/long      0.024470             2.445635            
     pair_coeff           1          2          lj/cut/coul/long      0.018597             2.443774            
     pair_coeff           1          3          lj/cut/coul/long      0.029796             3.316737            
     pair_coeff           1          4          lj/cut/coul/long      0.039399             3.057702            
     pair_coeff           1          5          lj/cut/coul/long      0.035734             3.010983            
     pair_coeff           1          6          lj/cut/coul/long      0.060704             2.655085            
     pair_coeff           2          2          lj/cut/coul/long      0.014134             2.441906            
     pair_coeff           2          3          lj/cut/coul/long      0.022558             3.316332            
     pair_coeff           2          4          lj/cut/coul/long      0.029842             3.057094            
     pair_coeff           2          5          lj/cut/coul/long      0.027069             3.010326            
     pair_coeff           2          6          lj/cut/coul/long      0.046053             2.653852            
     pair_coeff           3          3          lj/cut/coul/long      0.122728             3.671291            
     pair_coeff           3          4          lj/cut/coul/long      0.126098             3.529917            
     pair_coeff           3          5          lj/cut/coul/long      0.108313             3.507636            
     pair_coeff           3          6          lj/cut/coul/long      0.109776             3.371081            
     pair_coeff           4          4          lj/cut/coul/long      0.139401             3.352830            
     pair_coeff           4          5          lj/cut/coul/long      0.121441             3.323842            
     pair_coeff           4          6          lj/cut/coul/long      0.137145             3.137356            
     pair_coeff           5          5          lj/cut/coul/long      0.106098             3.293531            
     pair_coeff           5          6          lj/cut/coul/long      0.122688             3.096505            
     pair_coeff           6          6          lj/cut/coul/long      0.177478             2.804620            

     # Stretching interactions
     bond_coeff           1           377.846244           1.093155            
     bond_coeff           2           381.278506           1.092110            
     bond_coeff           3           309.857546           1.529265            
     bond_coeff           4           362.840811           1.462714            
     bond_coeff           5           1463.747527          1.147208            

     # Bending interactions
     angle_coeff          1           41.552646            107.471780          
     angle_coeff          2           43.036920            110.866477          
     angle_coeff          3           37.694165            106.906663          
     angle_coeff          4           46.801510            110.420201          
     angle_coeff          5           91.091262            107.802405          
     angle_coeff          6           25.863593            179.681001          
     angle_coeff          7           62.170134            112.429189          

     # Dihedral interactions
     dihedral_coeff       1          opls                 -0.144186            -0.002791             0.263012            -0.058943            
     dihedral_coeff       2          opls                  0.162155            -0.101165             0.427962            -0.071739            
     dihedral_coeff       3          opls                  0.000000             0.000000             0.000000             0.000000            
     dihedral_coeff       4          opls                  0.000000             0.000000             0.000000             0.000000            
