#Run DFT-D3 single point of the dimer
! wB97X-D3 def2-TZVP TIGHTSCF  CHELPG PAL8

%base "90_charges"

%scf
MaxIter 1000
end
%output
  Print[ P_Mayer ] 1
  Print[ P_NatPop ] 1
  Print[ P_Hirshfeld ] 1
  Print[ P_Mulliken ] 1
  Print [ P_Loewdin ] 1
end

* xyz 0 1
  C                      2.112352             0.842794             8.504853            
  O                      1.948106             1.410628             9.780327            
  H                      2.770766             1.732949             10.176207           
  H                      2.763896             -0.023255            8.603675            
  H                      1.203472             0.463934             7.921283            
  H                      2.618795             1.606458             7.814890            
*
