#Run DFT-D3 single point of the dimer
! wB97X-D3 def2-TZVP TIGHTSCF CHELPG PMODEL PAL8

%base "21-182_DFT_AB"

%scf
MaxIter 1000
end

* xyz 0 1
  C                      -0.209073            7.246687             3.659188            
  O                      -1.346885            8.025318             3.141750            
  H                      -1.003598            8.635182             2.472548            
  H                      0.609450             7.974867             3.989157            
  H                      -0.527729            6.725133             4.575650            
  H                      0.160751             6.566100             2.895262            
  C                      1.064836             10.403060            1.959708            
  O                      0.921461             9.305629             1.099116            
  H                      1.660101             8.748959             1.207532            
  H                      1.417389             10.046724            2.966692            
  H                      1.741924             11.090266            1.572753            
  H                      0.205987             11.068615            2.164938            
*

#Run DFT-D3 single point of the molecule with dimer basis set
$new_job
%base "21-182_DFT_A"
! wB97X-D3 def2-TZVP TIGHTSCF CHELPG PMODEL

%scf
MaxIter 1000
end

* xyz 0 1
  C                      -0.209073            7.246687             3.659188            
  O                      -1.346885            8.025318             3.141750            
  H                      -1.003598            8.635182             2.472548            
  H                      0.609450             7.974867             3.989157            
  H                      -0.527729            6.725133             4.575650            
  H                      0.160751             6.566100             2.895262            
  C                    : 1.064836             10.403060            1.959708            
  O                    : 0.921461             9.305629             1.099116            
  H                    : 1.660101             8.748959             1.207532            
  H                    : 1.417389             10.046724            2.966692            
  H                    : 1.741924             11.090266            1.572753            
  H                    : 0.205987             11.068615            2.164938            
*

#Run DFT-D3 single point of the particle with dimer basis set
$new_job
%base "21-182_DFT_B"
! wB97X-D3 def2-TZVP TIGHTSCF CHELPG PMODEL

%scf
MaxIter 1000
end

* xyz 0 1
  C                    : -0.209073            7.246687             3.659188            
  O                    : -1.346885            8.025318             3.141750            
  H                    : -1.003598            8.635182             2.472548            
  H                    : 0.609450             7.974867             3.989157            
  H                    : -0.527729            6.725133             4.575650            
  H                    : 0.160751             6.566100             2.895262            
  C                      1.064836             10.403060            1.959708            
  O                      0.921461             9.305629             1.099116            
  H                      1.660101             8.748959             1.207532            
  H                      1.417389             10.046724            2.966692            
  H                      1.741924             11.090266            1.572753            
  H                      0.205987             11.068615            2.164938            
*
