#Run DFT geometry optimization
! wB97X-D3 def2-TZVP TIGHTSCF Grid5 FinalGrid6 Opt CHELPG PAL4

%base "2_geo_opt"
%geom MaxIter 500
end

%geom
  Constraints
    { B 5 0 C }
  end
end


* xyz 0 1
  C                    3.011452             -1.181143            0.598397            
  O                    4.394817             -1.128295            0.874212            
  H                    4.772340             -0.379267            0.412398            
  H                    2.806578             -1.319210            -0.469445           
  H                    2.611776             -2.040510            1.135803            
  H                    2.484613             -0.284246            0.945754            
*
