#Run DFT-D3 single point of the dimer
! wB97X-D3 def2-TZVP TIGHTSCF  CHELPG PAL8

%base "86_charges"

%scf
MaxIter 1000
end
%output
  Print[ P_Mayer ] 1
  Print[ P_NatPop ] 1
  Print[ P_Hirshfeld ] 1
  Print[ P_Mulliken ] 1
  Print [ P_Loewdin ] 1
end

* xyz 0 1
  C                      1.449547             7.497749             -5.309497           
  O                      0.507473             6.817382             -6.088610           
  H                      0.855681             6.722775             -7.022863           
  H                      2.078895             8.171518             -5.898656           
  H                      0.947844             8.029111             -4.434158           
  H                      2.215931             6.845951             -4.810663           
*
