#Run DFT-D3 single point of the dimer
! wB97X-D3 def2-TZVP TIGHTSCF CHELPG PMODEL PAL8

%base "17-207_DFT_AB"

%scf
MaxIter 1000
end

* xyz 0 1
  C                      8.014316             -5.941950            -6.617654           
  O                      8.114571             -4.769030            -7.390481           
  H                      8.823657             -5.032683            -7.996795           
  H                      8.737297             -5.974831            -5.831176           
  H                      7.019085             -6.186425            -6.241785           
  H                      8.308500             -6.885411            -7.121500           
  C                      4.285054             -4.118987            -8.771822           
  O                      5.215044             -4.544347            -7.797496           
  H                      6.041568             -4.361255            -8.291741           
  H                      4.291076             -3.066954            -8.798043           
  H                      4.511558             -4.496756            -9.780242           
  H                      3.264107             -4.300645            -8.519207           
*

#Run DFT-D3 single point of the molecule with dimer basis set
$new_job
%base "17-207_DFT_A"
! wB97X-D3 def2-TZVP TIGHTSCF CHELPG PMODEL

%scf
MaxIter 1000
end

* xyz 0 1
  C                      8.014316             -5.941950            -6.617654           
  O                      8.114571             -4.769030            -7.390481           
  H                      8.823657             -5.032683            -7.996795           
  H                      8.737297             -5.974831            -5.831176           
  H                      7.019085             -6.186425            -6.241785           
  H                      8.308500             -6.885411            -7.121500           
  C                    : 4.285054             -4.118987            -8.771822           
  O                    : 5.215044             -4.544347            -7.797496           
  H                    : 6.041568             -4.361255            -8.291741           
  H                    : 4.291076             -3.066954            -8.798043           
  H                    : 4.511558             -4.496756            -9.780242           
  H                    : 3.264107             -4.300645            -8.519207           
*

#Run DFT-D3 single point of the particle with dimer basis set
$new_job
%base "17-207_DFT_B"
! wB97X-D3 def2-TZVP TIGHTSCF CHELPG PMODEL

%scf
MaxIter 1000
end

* xyz 0 1
  C                    : 8.014316             -5.941950            -6.617654           
  O                    : 8.114571             -4.769030            -7.390481           
  H                    : 8.823657             -5.032683            -7.996795           
  H                    : 8.737297             -5.974831            -5.831176           
  H                    : 7.019085             -6.186425            -6.241785           
  H                    : 8.308500             -6.885411            -7.121500           
  C                      4.285054             -4.118987            -8.771822           
  O                      5.215044             -4.544347            -7.797496           
  H                      6.041568             -4.361255            -8.291741           
  H                      4.291076             -3.066954            -8.798043           
  H                      4.511558             -4.496756            -9.780242           
  H                      3.264107             -4.300645            -8.519207           
*
