     # Non-bonded interactions (pair-wise)
     pair_coeff           1          1          lj/cut/coul/long      0.280833             3.414637            
     pair_coeff           1          2          lj/cut/coul/long      0.022870             3.111884            
     pair_coeff           1          3          lj/cut/coul/long      0.040646             3.106414            
     pair_coeff           1          4          lj/cut/coul/long      0.209673             3.426844            
     pair_coeff           1          5          lj/cut/coul/long      0.236291             3.420673            
     pair_coeff           2          2          lj/cut/coul/long      0.004193             2.477211            
     pair_coeff           2          3          lj/cut/coul/long      0.007691             2.459875            
     pair_coeff           2          4          lj/cut/coul/long      0.016810             3.131175            
     pair_coeff           2          5          lj/cut/coul/long      0.019093             3.121454            
     pair_coeff           3          3          lj/cut/coul/long      0.014134             2.441906            
     pair_coeff           3          4          lj/cut/coul/long      0.029864             3.125872            
     pair_coeff           3          5          lj/cut/coul/long      0.033926             3.116068            
     pair_coeff           4          4          lj/cut/coul/long      0.156615             3.438837            
     pair_coeff           4          5          lj/cut/coul/long      0.176457             3.432774            
     pair_coeff           5          5          lj/cut/coul/long      0.198836             3.426656            

     # Stretching interactions
     bond_coeff           1           227.429946           1.787734            
     bond_coeff           2           378.271638           1.089546            
     bond_coeff           3           376.965084           1.093865            
     bond_coeff           4           302.555399           1.526258            
     bond_coeff           5           315.688677           1.514466            

     # Bending interactions
     angle_coeff          1           51.478389            106.670538          
     angle_coeff          2           71.124906            112.150071          
     angle_coeff          3           40.989711            108.620483          
     angle_coeff          4           41.996703            111.083674          
     angle_coeff          5           42.627517            106.686353          
     angle_coeff          6           45.346396            109.593180          
     angle_coeff          7           48.101040            108.798083          
     angle_coeff          8           55.648626            111.554479          

     # Dihedral interactions
     dihedral_coeff       1          opls                 -0.116036            -0.116253             0.790373             0.337077            
     dihedral_coeff       2          opls                  0.235807            -0.918631             0.811621             0.006876            
     dihedral_coeff       3          opls                 -0.029053             0.161670             0.204264             0.033852            
     dihedral_coeff       4          opls                 -0.121469             0.083570             0.333144            -0.389104            
     dihedral_coeff       5          opls                  0.286621            -1.262253             0.320078            -0.169259            
     dihedral_coeff       6          opls                 -0.435331             0.821887             0.307998             0.014876            
     dihedral_coeff       7          opls                  0.212914             1.938082             0.362420            -0.050744            
