#Run DFT-D3 single point of the dimer
! wB97X-D3 def2-TZVP TIGHTSCF CHELPG PMODEL PAL8

%base "19-63_DFT_AB"

%scf
MaxIter 1000
end

* xyz 0 1
  C                      7.735640             -3.628557            -5.394134           
  O                      6.374040             -3.628548            -5.142410           
  H                      5.933957             -4.477045            -5.105908           
  H                      8.304852             -3.877057            -4.570331           
  H                      7.857922             -4.475036            -6.074864           
  H                      8.076524             -2.769222            -5.967372           
  C                      8.555876             -5.023468            -2.085604           
  O                      9.597576             -5.817501            -1.599137           
  H                      10.014008            -5.365580            -0.897390           
  H                      7.789222             -4.795281            -1.346501           
  H                      8.845916             -4.068275            -2.582090           
  H                      8.075075             -5.507060            -2.944996           
*

#Run DFT-D3 single point of the molecule with dimer basis set
$new_job
%base "19-63_DFT_A"
! wB97X-D3 def2-TZVP TIGHTSCF CHELPG PMODEL

%scf
MaxIter 1000
end

* xyz 0 1
  C                      7.735640             -3.628557            -5.394134           
  O                      6.374040             -3.628548            -5.142410           
  H                      5.933957             -4.477045            -5.105908           
  H                      8.304852             -3.877057            -4.570331           
  H                      7.857922             -4.475036            -6.074864           
  H                      8.076524             -2.769222            -5.967372           
  C                    : 8.555876             -5.023468            -2.085604           
  O                    : 9.597576             -5.817501            -1.599137           
  H                    : 10.014008            -5.365580            -0.897390           
  H                    : 7.789222             -4.795281            -1.346501           
  H                    : 8.845916             -4.068275            -2.582090           
  H                    : 8.075075             -5.507060            -2.944996           
*

#Run DFT-D3 single point of the particle with dimer basis set
$new_job
%base "19-63_DFT_B"
! wB97X-D3 def2-TZVP TIGHTSCF CHELPG PMODEL

%scf
MaxIter 1000
end

* xyz 0 1
  C                    : 7.735640             -3.628557            -5.394134           
  O                    : 6.374040             -3.628548            -5.142410           
  H                    : 5.933957             -4.477045            -5.105908           
  H                    : 8.304852             -3.877057            -4.570331           
  H                    : 7.857922             -4.475036            -6.074864           
  H                    : 8.076524             -2.769222            -5.967372           
  C                      8.555876             -5.023468            -2.085604           
  O                      9.597576             -5.817501            -1.599137           
  H                      10.014008            -5.365580            -0.897390           
  H                      7.789222             -4.795281            -1.346501           
  H                      8.845916             -4.068275            -2.582090           
  H                      8.075075             -5.507060            -2.944996           
*
