#Run DFT-D3 single point of the dimer
! wB97X-D3 def2-TZVP TIGHTSCF  CHELPG PAL8

%base "7_charges"

%scf
MaxIter 1000
end
%output
  Print[ P_Mayer ] 1
  Print[ P_NatPop ] 1
  Print[ P_Hirshfeld ] 1
  Print[ P_Mulliken ] 1
  Print [ P_Loewdin ] 1
end

* xyz 0 1
  C                      -3.728019            6.509154             7.813817            
  O                      -2.781509            5.907698             6.923639            
  H                      -2.932746            4.986791             7.058936            
  H                      -4.716102            6.091412             7.527722            
  H                      -3.488489            6.303997             8.862452            
  H                      -3.680288            7.632725             7.729026            
*
