#Run DFT-D3 single point of the dimer
! wB97X-D3 def2-TZVP TIGHTSCF  CHELPG PAL8

%base "46_charges"

%scf
MaxIter 1000
end
%output
  Print[ P_Mayer ] 1
  Print[ P_NatPop ] 1
  Print[ P_Hirshfeld ] 1
  Print[ P_Mulliken ] 1
  Print [ P_Loewdin ] 1
end

* xyz 0 1
  C                      5.826561             -9.711384            7.290300            
  O                      4.768460             -8.814863            7.445169            
  H                      3.947357             -9.331510            7.406989            
  H                      6.799070             -9.241065            7.128387            
  H                      5.851815             -10.287929           8.231678            
  H                      5.622700             -10.441449           6.473548            
*
