#Run DFT geometry optimization
! wB97X-D3 def2-TZVP TIGHTSCF Grid5 FinalGrid6 Opt CHELPG PAL4

%base "9_geo_opt"
%geom MaxIter 500
end

%geom
  Constraints
    { B 5 0 C }
  end
end


* xyz 0 1
  C                    3.011115             -1.180570            0.598619            
  O                    4.394481             -1.127723            0.874434            
  H                    4.772004             -0.378695            0.412620            
  H                    2.806242             -1.318638            -0.469223           
  H                    2.611440             -2.039938            1.136025            
  H                    2.484949             -0.284818            0.945532            
*
