#Run DFT-D3 single point of the dimer
! wB97X-D3 def2-TZVP TIGHTSCF  CHELPG PAL8

%base "142_charges"

%scf
MaxIter 1000
end
%output
  Print[ P_Mayer ] 1
  Print[ P_NatPop ] 1
  Print[ P_Hirshfeld ] 1
  Print[ P_Mulliken ] 1
  Print [ P_Loewdin ] 1
end

* xyz 0 1
  C                      9.413836             8.100781             8.324935            
  O                      10.177641            9.186433             8.799578            
  H                      10.466779            8.798903             9.636599            
  H                      8.906484             7.716654             9.237874            
  H                      8.584639             8.337450             7.716500            
  H                      10.071720            7.308813             7.854180            
*
