     # Non-bonded interactions (pair-wise)
     pair_coeff           1          1          lj/cut/coul/long      0.024470             2.445635            
     pair_coeff           1          2          lj/cut/coul/long      0.018597             2.443774            
     pair_coeff           1          3          lj/cut/coul/long      0.012785             2.469714            
     pair_coeff           1          4          lj/cut/coul/long      0.004946             2.450156            
     pair_coeff           1          5          lj/cut/coul/long      0.039399             3.057702            
     pair_coeff           1          6          lj/cut/coul/long      0.040816             3.068688            
     pair_coeff           1          7          lj/cut/coul/long      0.040233             3.103594            
     pair_coeff           1          8          lj/cut/coul/long      0.040659             3.108570            
     pair_coeff           1          9          lj/cut/coul/long      0.053643             2.823499            
     pair_coeff           2          2          lj/cut/coul/long      0.014134             2.441906            
     pair_coeff           2          3          lj/cut/coul/long      0.009714             2.467942            
     pair_coeff           2          4          lj/cut/coul/long      0.003759             2.448312            
     pair_coeff           2          5          lj/cut/coul/long      0.029842             3.057094            
     pair_coeff           2          6          lj/cut/coul/long      0.030915             3.068090            
     pair_coeff           2          7          lj/cut/coul/long      0.030471             3.103029            
     pair_coeff           2          8          lj/cut/coul/long      0.030793             3.108010            
     pair_coeff           2          9          lj/cut/coul/long      0.040661             2.822592            
     pair_coeff           3          3          lj/cut/coul/long      0.006702             2.492673            
     pair_coeff           3          4          lj/cut/coul/long      0.002586             2.474020            
     pair_coeff           3          5          lj/cut/coul/long      0.021491             3.065727            
     pair_coeff           3          6          lj/cut/coul/long      0.022272             3.076572            
     pair_coeff           3          7          lj/cut/coul/long      0.021975             3.111047            
     pair_coeff           3          8          lj/cut/coul/long      0.022211             3.115965            
     pair_coeff           3          9          lj/cut/coul/long      0.028984             2.835405            
     pair_coeff           4          4          lj/cut/coul/long      0.001000             2.454636            
     pair_coeff           4          5          lj/cut/coul/long      0.008030             3.059187            
     pair_coeff           4          6          lj/cut/coul/long      0.008319             3.070146            
     pair_coeff           4          7          lj/cut/coul/long      0.008201             3.104972            
     pair_coeff           4          8          lj/cut/coul/long      0.008289             3.109938            
     pair_coeff           4          9          lj/cut/coul/long      0.010913             2.825709            
     pair_coeff           5          5          lj/cut/coul/long      0.139401             3.352830            
     pair_coeff           5          6          lj/cut/coul/long      0.145731             3.359787            
     pair_coeff           5          7          lj/cut/coul/long      0.147713             3.382236            
     pair_coeff           5          8          lj/cut/coul/long      0.149856             3.385479            
     pair_coeff           5          9          lj/cut/coul/long      0.150590             3.217753            
     pair_coeff           6          6          lj/cut/coul/long      0.152372             3.366672            
     pair_coeff           6          7          lj/cut/coul/long      0.154518             3.388897            
     pair_coeff           6          8          lj/cut/coul/long      0.156770             3.392109            
     pair_coeff           6          9          lj/cut/coul/long      0.156885             3.226285            
     pair_coeff           7          7          lj/cut/coul/long      0.156930             3.410417            
     pair_coeff           7          8          lj/cut/coul/long      0.159250             3.413529            
     pair_coeff           7          9          lj/cut/coul/long      0.157322             3.253656            
     pair_coeff           8          8          lj/cut/coul/long      0.161610             3.416626            
     pair_coeff           8          9          lj/cut/coul/long      0.159364             3.257590            
     pair_coeff           9          9          lj/cut/coul/long      0.176497             3.046432            

     # Stretching interactions
     bond_coeff           1           377.846244           1.093155            
     bond_coeff           2           368.488176           1.095580            
     bond_coeff           3           364.966872           1.097414            
     bond_coeff           4           366.850279           1.096408            
     bond_coeff           5           495.989038           1.013118            
     bond_coeff           6           313.531893           1.522660            
     bond_coeff           7           308.173115           1.521937            
     bond_coeff           8           312.624720           1.516971            
     bond_coeff           9           349.196480           1.448508            

     # Bending interactions
     angle_coeff          1           41.552646            107.471780          
     angle_coeff          2           43.036920            110.866477          
     angle_coeff          3           43.628825            106.010166          
     angle_coeff          4           45.160055            109.784102          
     angle_coeff          5           44.612128            109.127713          
     angle_coeff          6           44.539510            106.257081          
     angle_coeff          7           39.736882            109.394144          
     angle_coeff          8           38.296343            108.726910          
     angle_coeff          9           43.459340            106.173064          
     angle_coeff          10          44.998424            109.013046          
     angle_coeff          11          53.588145            107.852490          
     angle_coeff          12          46.723541            109.381087          
     angle_coeff          13          55.398823            112.803517          
     angle_coeff          14          49.009643            112.507807          
     angle_coeff          15          54.600056            113.010974          
     angle_coeff          16          63.977540            111.506732          

     # Dihedral interactions
     dihedral_coeff       1          opls                  0.120045            -0.042386             0.226783            -0.014429            
     dihedral_coeff       2          opls                 -0.295615            -0.050975             0.490844            -0.022427            
     dihedral_coeff       3          opls                  0.024778            -1.274825             0.350015            -0.145992            
     dihedral_coeff       4          opls                 -0.093722             0.274930             0.089285            -0.439370            
     dihedral_coeff       5          opls                 -0.008756             0.978821             0.651133             0.489452            
     dihedral_coeff       6          opls                  1.239487             0.275881             0.132283             0.118786            
     dihedral_coeff       7          opls                  0.772017             1.091013             0.528926             0.256593            
     dihedral_coeff       8          opls                 -2.464182            -1.565269             0.322219            -0.007837            
     dihedral_coeff       9          opls                 -0.043083            -0.780504            -0.065482            -0.893347            
     dihedral_coeff       10         opls                 -0.250802             1.041451             2.435399             0.509842            
     dihedral_coeff       11         opls                 -0.347275            -0.991093            -2.167063            -1.264558            
     dihedral_coeff       12         opls                 -0.368364             1.678863             0.260042            -0.008875            
     dihedral_coeff       13         opls                 -1.866741            -1.448503             1.233477            -0.048672            
     dihedral_coeff       14         opls                  0.791202             0.251727             0.282779             0.315217            
