     # Non-bonded interactions (pair-wise)
     pair_coeff           1          1          lj/cut/coul/long      0.006523             2.470287            
     pair_coeff           1          2          lj/cut/coul/long      0.003164             2.486699            
     pair_coeff           1          3          lj/cut/coul/long      0.025774             3.072968            
     pair_coeff           1          4          lj/cut/coul/long      0.021355             3.155332            
     pair_coeff           1          5          lj/cut/coul/long      0.027200             2.592955            
     pair_coeff           2          2          lj/cut/coul/long      0.001537             2.502586            
     pair_coeff           2          3          lj/cut/coul/long      0.012868             3.078545            
     pair_coeff           2          4          lj/cut/coul/long      0.010679             3.160221            
     pair_coeff           2          5          lj/cut/coul/long      0.013324             2.605889            
     pair_coeff           3          3          lj/cut/coul/long      0.218126             3.366963            
     pair_coeff           3          4          lj/cut/coul/long      0.192661             3.420566            
     pair_coeff           3          5          lj/cut/coul/long      0.131749             3.117934            
     pair_coeff           4          4          lj/cut/coul/long      0.171571             3.470271            
     pair_coeff           4          5          lj/cut/coul/long      0.110515             3.194933            
     pair_coeff           5          5          lj/cut/coul/long      0.121136             2.692037            

     # Stretching interactions
     bond_coeff           1           360.575632           1.098824            
     bond_coeff           2           334.619370           1.108568            
     bond_coeff           3           373.154094           1.403020            
     bond_coeff           4           394.698336           1.385010            

     # Bending interactions
     angle_coeff          1           40.646717            108.276775          
     angle_coeff          2           55.063814            111.155764          
     angle_coeff          3           45.294289            108.185053          
     angle_coeff          4           44.847720            110.652835          
     angle_coeff          5           60.319829            111.716466          
     angle_coeff          6           104.415055           107.276536          

     # Dihedral interactions
     dihedral_coeff       1          opls                  0.122008            -0.193595             0.730456            -0.274262            
     dihedral_coeff       2          opls                 -0.259450             0.812833             0.790992            -0.189453            
     dihedral_coeff       3          opls                  0.220517            -2.253211             1.300809            -0.368059            
