#Run DFT geometry optimization
! wB97X-D3 def2-TZVP TIGHTSCF Grid5 FinalGrid6 Opt CHELPG PAL4

%base "3_geo_opt"
%geom MaxIter 500
end

%geom
  Constraints
    { B 2 1 C }
  end
end


* xyz 0 1
  C                    3.011229             -1.181054            0.598588            
  O                    4.394594             -1.128206            0.874404            
  H                    4.772275             -0.378865            0.412397            
  H                    2.806355             -1.319121            -0.469253           
  H                    2.611553             -2.040421            1.135995            
  H                    2.484678             -0.284648            0.945755            
*
