#Run DFT-D3 single point of the dimer
! wB97X-D3 def2-TZVP TIGHTSCF CHELPG PMODEL PAL8

%base "15-165_DFT_AB"

%scf
MaxIter 1000
end

* xyz 0 1
  C                      -8.337797            2.416175             5.163144            
  O                      -7.836893            3.630064             5.649020            
  H                      -8.642181            4.245374             5.763971            
  H                      -7.568641            1.935078             4.537271            
  H                      -8.594351            1.681504             5.898508            
  H                      -9.204598            2.572450             4.608800            
  C                      -9.809337            4.625064             8.066705            
  O                      -10.372612           4.382840             6.748951            
  H                      -11.292812           4.100494             6.801585            
  H                      -9.570127            3.753823             8.548412            
  H                      -8.941450            5.281015             8.024271            
  H                      -10.560343           5.100254             8.710756            
*

#Run DFT-D3 single point of the molecule with dimer basis set
$new_job
%base "15-165_DFT_A"
! wB97X-D3 def2-TZVP TIGHTSCF CHELPG PMODEL

%scf
MaxIter 1000
end

* xyz 0 1
  C                      -8.337797            2.416175             5.163144            
  O                      -7.836893            3.630064             5.649020            
  H                      -8.642181            4.245374             5.763971            
  H                      -7.568641            1.935078             4.537271            
  H                      -8.594351            1.681504             5.898508            
  H                      -9.204598            2.572450             4.608800            
  C                    : -9.809337            4.625064             8.066705            
  O                    : -10.372612           4.382840             6.748951            
  H                    : -11.292812           4.100494             6.801585            
  H                    : -9.570127            3.753823             8.548412            
  H                    : -8.941450            5.281015             8.024271            
  H                    : -10.560343           5.100254             8.710756            
*

#Run DFT-D3 single point of the particle with dimer basis set
$new_job
%base "15-165_DFT_B"
! wB97X-D3 def2-TZVP TIGHTSCF CHELPG PMODEL

%scf
MaxIter 1000
end

* xyz 0 1
  C                    : -8.337797            2.416175             5.163144            
  O                    : -7.836893            3.630064             5.649020            
  H                    : -8.642181            4.245374             5.763971            
  H                    : -7.568641            1.935078             4.537271            
  H                    : -8.594351            1.681504             5.898508            
  H                    : -9.204598            2.572450             4.608800            
  C                      -9.809337            4.625064             8.066705            
  O                      -10.372612           4.382840             6.748951            
  H                      -11.292812           4.100494             6.801585            
  H                      -9.570127            3.753823             8.548412            
  H                      -8.941450            5.281015             8.024271            
  H                      -10.560343           5.100254             8.710756            
*
