     # Non-bonded interactions (pair-wise)
     pair_coeff           1          1          lj/cut/coul/long      0.024470             2.445635            
     pair_coeff           1          2          lj/cut/coul/long      0.049302             2.914687            
     pair_coeff           1          3          lj/cut/coul/long      0.028781             3.330437            
     pair_coeff           1          4          lj/cut/coul/long      0.060704             2.655085            
     pair_coeff           2          2          lj/cut/coul/long      0.172400             3.168722            
     pair_coeff           2          3          lj/cut/coul/long      0.128559             3.475950            
     pair_coeff           2          4          lj/cut/coul/long      0.163814             3.013888            
     pair_coeff           3          3          lj/cut/coul/long      0.117130             3.687766            
     pair_coeff           3          4          lj/cut/coul/long      0.106279             3.383724            
     pair_coeff           4          4          lj/cut/coul/long      0.177478             2.804620            

     # Stretching interactions
     bond_coeff           1           389.221646           1.089509            
     bond_coeff           2           380.178645           1.456132            
     bond_coeff           3           1468.928593          1.146423            

     # Bending interactions
     angle_coeff          1           37.970322            109.008832          
     angle_coeff          2           58.528696            109.739841          
     angle_coeff          3           25.587831            180.005399          

     # Dihedral interactions
     dihedral_coeff       1          opls                  0.000000             0.000000             0.000000             0.000000            
