     # Non-bonded interactions (pair-wise)
     pair_coeff           1          1          lj/cut/coul/long      0.024470             2.445635            
     pair_coeff           1          2          lj/cut/coul/long      0.018597             2.443774            
     pair_coeff           1          3          lj/cut/coul/long      0.007296             2.506407            
     pair_coeff           1          4          lj/cut/coul/long      0.003317             2.229575            
     pair_coeff           1          5          lj/cut/coul/long      0.039399             3.057702            
     pair_coeff           1          6          lj/cut/coul/long      0.040816             3.068688            
     pair_coeff           1          7          lj/cut/coul/long      0.040522             3.067015            
     pair_coeff           1          8          lj/cut/coul/long      0.040352             3.136834            
     pair_coeff           1          9          lj/cut/coul/long      0.037789             3.116326            
     pair_coeff           1          10         lj/cut/coul/long      0.056081             2.744410            
     pair_coeff           2          2          lj/cut/coul/long      0.014134             2.441906            
     pair_coeff           2          3          lj/cut/coul/long      0.005542             2.504762            
     pair_coeff           2          4          lj/cut/coul/long      0.002529             2.226616            
     pair_coeff           2          5          lj/cut/coul/long      0.029842             3.057094            
     pair_coeff           2          6          lj/cut/coul/long      0.030915             3.068090            
     pair_coeff           2          7          lj/cut/coul/long      0.030692             3.066416            
     pair_coeff           2          8          lj/cut/coul/long      0.030559             3.136299            
     pair_coeff           2          9          lj/cut/coul/long      0.028619             3.115773            
     pair_coeff           2          10         lj/cut/coul/long      0.042524             2.743365            
     pair_coeff           3          3          lj/cut/coul/long      0.002217             2.560598            
     pair_coeff           3          4          lj/cut/coul/long      0.000898             2.322126            
     pair_coeff           3          5          lj/cut/coul/long      0.013069             3.078515            
     pair_coeff           3          6          lj/cut/coul/long      0.013550             3.089138            
     pair_coeff           3          7          lj/cut/coul/long      0.013450             3.087520            
     pair_coeff           3          8          lj/cut/coul/long      0.013461             3.155194            
     pair_coeff           3          9          lj/cut/coul/long      0.012588             3.135288            
     pair_coeff           3          10         lj/cut/coul/long      0.017948             2.779607            
     pair_coeff           4          4          lj/cut/coul/long      0.001000             1.779072            
     pair_coeff           4          5          lj/cut/coul/long      0.003451             2.998042            
     pair_coeff           4          6          lj/cut/coul/long      0.003565             3.010151            
     pair_coeff           4          7          lj/cut/coul/long      0.003541             3.008310            
     pair_coeff           4          8          lj/cut/coul/long      0.003472             3.084706            
     pair_coeff           4          9          lj/cut/coul/long      0.003266             3.062367            
     pair_coeff           4          10         lj/cut/coul/long      0.005547             2.636846            
     pair_coeff           5          5          lj/cut/coul/long      0.139401             3.352830            
     pair_coeff           5          6          lj/cut/coul/long      0.145731             3.359787            
     pair_coeff           5          7          lj/cut/coul/long      0.144481             3.358724            
     pair_coeff           5          8          lj/cut/coul/long      0.151942             3.404093            
     pair_coeff           5          9          lj/cut/coul/long      0.140111             3.390554            
     pair_coeff           5          10         lj/cut/coul/long      0.142990             3.178189            
     pair_coeff           6          6          lj/cut/coul/long      0.152372             3.366672            
     pair_coeff           6          7          lj/cut/coul/long      0.151062             3.365620            
     pair_coeff           6          8          lj/cut/coul/long      0.159012             3.410544            
     pair_coeff           6          9          lj/cut/coul/long      0.146591             3.397134            
     pair_coeff           6          10         lj/cut/coul/long      0.148787             3.187262            
     pair_coeff           7          7          lj/cut/coul/long      0.149763             3.364567            
     pair_coeff           7          8          lj/cut/coul/long      0.157623             3.409559            
     pair_coeff           7          9          lj/cut/coul/long      0.145316             3.396129            
     pair_coeff           7          10         lj/cut/coul/long      0.147615             3.185878            
     pair_coeff           8          8          lj/cut/coul/long      0.166874             3.451764            
     pair_coeff           8          9          lj/cut/coul/long      0.153583             3.439144            
     pair_coeff           8          10         lj/cut/coul/long      0.150884             3.244255            
     pair_coeff           9          9          lj/cut/coul/long      0.141420             3.426289            
     pair_coeff           9          10         lj/cut/coul/long      0.140271             3.226978            
     pair_coeff           10         10         lj/cut/coul/long      0.171189             2.936022            

     # Stretching interactions
     bond_coeff           1           377.846244           1.093155            
     bond_coeff           2           368.488176           1.095580            
     bond_coeff           3           365.823569           1.096853            
     bond_coeff           4           363.956837           1.097645            
     bond_coeff           5           356.736641           1.099182            
     bond_coeff           6           611.563703           0.957250            
     bond_coeff           7           313.531893           1.522660            
     bond_coeff           8           308.486676           1.522841            
     bond_coeff           9           308.470005           1.522439            
     bond_coeff           10          306.327158           1.523007            
     bond_coeff           11          305.482370           1.517218            
     bond_coeff           12          364.232036           1.417091            

     # Bending interactions
     angle_coeff          1           41.552646            107.471780          
     angle_coeff          2           43.036920            110.866477          
     angle_coeff          3           43.628825            106.010166          
     angle_coeff          4           45.160055            109.784102          
     angle_coeff          5           44.612128            109.127713          
     angle_coeff          6           43.773149            105.937020          
     angle_coeff          7           44.174893            109.305214          
     angle_coeff          8           44.048807            109.314041          
     angle_coeff          9           44.012669            109.306941          
     angle_coeff          10          42.090622            106.520341          
     angle_coeff          11          53.783225            109.355481          
     angle_coeff          12          48.819089            108.882482          
     angle_coeff          13          42.216565            107.506329          
     angle_coeff          14          43.871230            109.428772          
     angle_coeff          15          61.934722            110.801561          
     angle_coeff          16          42.850375            107.424685          
     angle_coeff          17          55.398823            112.803517          
     angle_coeff          18          53.310895            113.405969          
     angle_coeff          19          53.310895            113.405969          
     angle_coeff          20          53.310895            113.405969          
     angle_coeff          21          55.089394            112.735713          
     angle_coeff          22          71.558371            108.671490          

     # Dihedral interactions
     dihedral_coeff       1          opls                  0.120045            -0.042386             0.226783            -0.014429            
     dihedral_coeff       2          opls                 -0.263438            -0.060328             0.490572            -0.025392            
     dihedral_coeff       3          opls                  0.108399            -0.919892             0.348516            -0.131845            
     dihedral_coeff       4          opls                 -0.369084             0.255994             0.353895            -0.085740            
     dihedral_coeff       5          opls                 -0.260122             0.645301             0.411345             0.001184            
     dihedral_coeff       6          opls                  0.136636            -1.026132             0.392753            -0.148606            
     dihedral_coeff       7          opls                 -0.299093             0.727236             0.345240            -0.023508            
     dihedral_coeff       8          opls                 -0.380163             0.570526             0.296911            -0.039601            
     dihedral_coeff       9          opls                 -0.380070             0.570629             0.296995            -0.039843            
     dihedral_coeff       10         opls                  0.228771            -1.331136             0.282787            -0.201810            
     dihedral_coeff       11         opls                 -0.314717             0.836984             0.363449            -0.352742            
     dihedral_coeff       12         opls                 -0.407161             0.428803             0.334623             0.268182            
     dihedral_coeff       13         opls                  1.059349             0.249642             0.402642             0.163965            
     dihedral_coeff       14         opls                  0.830716             0.308229            -0.325238             0.399454            
     dihedral_coeff       15         opls                 -0.690272            -0.482854             0.994258            -0.050787            
     dihedral_coeff       16         opls                 -0.023619             0.019421             0.375822            -0.108748            
     dihedral_coeff       17         opls                 -0.635121            -0.135602             0.369960            -0.181880            
     dihedral_coeff       18         opls                  0.138569             1.109876             0.354103            -0.114770            
     dihedral_coeff       19         opls                  0.060823             1.430486             0.270255            -0.072629            
     dihedral_coeff       20         opls                  0.025270             1.285864             0.338671            -0.084568            
     dihedral_coeff       21         opls                  0.045044             1.303261             0.349585            -0.104967            
     dihedral_coeff       22         opls                 -0.256529             1.593344             0.347222            -0.093125            
     dihedral_coeff       23         opls                  0.340747            -1.033850             0.784142             0.073277            
