     # Non-bonded interactions (pair-wise)
     pair_coeff           1          1          lj/cut/coul/long      0.024470             2.445635            
     pair_coeff           1          2          lj/cut/coul/long      0.018597             2.443774            
     pair_coeff           1          3          lj/cut/coul/long      0.012785             2.469714            
     pair_coeff           1          4          lj/cut/coul/long      0.004938             2.422778            
     pair_coeff           1          5          lj/cut/coul/long      0.039399             3.057702            
     pair_coeff           1          6          lj/cut/coul/long      0.040816             3.068688            
     pair_coeff           1          7          lj/cut/coul/long      0.044183             3.073661            
     pair_coeff           1          8          lj/cut/coul/long      0.040659             3.108570            
     pair_coeff           1          9          lj/cut/coul/long      0.050936             2.918065            
     pair_coeff           2          2          lj/cut/coul/long      0.014134             2.441906            
     pair_coeff           2          3          lj/cut/coul/long      0.009714             2.467942            
     pair_coeff           2          4          lj/cut/coul/long      0.003754             2.420827            
     pair_coeff           2          5          lj/cut/coul/long      0.029842             3.057094            
     pair_coeff           2          6          lj/cut/coul/long      0.030915             3.068090            
     pair_coeff           2          7          lj/cut/coul/long      0.033464             3.073068            
     pair_coeff           2          8          lj/cut/coul/long      0.030793             3.108010            
     pair_coeff           2          9          lj/cut/coul/long      0.038595             2.917297            
     pair_coeff           3          3          lj/cut/coul/long      0.006702             2.492673            
     pair_coeff           3          4          lj/cut/coul/long      0.002572             2.447979            
     pair_coeff           3          5          lj/cut/coul/long      0.021491             3.065727            
     pair_coeff           3          6          lj/cut/coul/long      0.022272             3.076572            
     pair_coeff           3          7          lj/cut/coul/long      0.024112             3.081482            
     pair_coeff           3          8          lj/cut/coul/long      0.022211             3.115965            
     pair_coeff           3          9          lj/cut/coul/long      0.027645             2.928182            
     pair_coeff           4          4          lj/cut/coul/long      0.001000             2.398789            
     pair_coeff           4          5          lj/cut/coul/long      0.007625             3.050349            
     pair_coeff           4          6          lj/cut/coul/long      0.007897             3.061466            
     pair_coeff           4          7          lj/cut/coul/long      0.008547             3.066498            
     pair_coeff           4          8          lj/cut/coul/long      0.007858             3.101803            
     pair_coeff           4          9          lj/cut/coul/long      0.009904             2.908758            
     pair_coeff           5          5          lj/cut/coul/long      0.139401             3.352830            
     pair_coeff           5          6          lj/cut/coul/long      0.145731             3.359787            
     pair_coeff           5          7          lj/cut/coul/long      0.158395             3.362953            
     pair_coeff           5          8          lj/cut/coul/long      0.149856             3.385479            
     pair_coeff           5          9          lj/cut/coul/long      0.158436             3.269157            
     pair_coeff           6          6          lj/cut/coul/long      0.152372             3.366672            
     pair_coeff           6          7          lj/cut/coul/long      0.165624             3.369806            
     pair_coeff           6          8          lj/cut/coul/long      0.156770             3.392109            
     pair_coeff           6          9          lj/cut/coul/long      0.165296             3.277044            
     pair_coeff           7          7          lj/cut/coul/long      0.180034             3.372926            
     pair_coeff           7          8          lj/cut/coul/long      0.170446             3.395128            
     pair_coeff           7          9          lj/cut/coul/long      0.179496             3.280630            
     pair_coeff           8          8          lj/cut/coul/long      0.161610             3.416626            
     pair_coeff           8          9          lj/cut/coul/long      0.168757             3.306060            
     pair_coeff           9          9          lj/cut/coul/long      0.185030             3.173168            

     # Stretching interactions
     bond_coeff           1           377.846244           1.093155            
     bond_coeff           2           368.488176           1.095580            
     bond_coeff           3           364.966872           1.097414            
     bond_coeff           4           371.202508           1.094644            
     bond_coeff           5           509.552153           1.010306            
     bond_coeff           6           313.531893           1.522660            
     bond_coeff           7           308.173115           1.521937            
     bond_coeff           8           311.517504           1.517419            
     bond_coeff           9           349.490365           1.459222            

     # Bending interactions
     angle_coeff          1           41.552646            107.471780          
     angle_coeff          2           43.036920            110.866477          
     angle_coeff          3           43.628825            106.010166          
     angle_coeff          4           45.160055            109.784102          
     angle_coeff          5           44.612128            109.127713          
     angle_coeff          6           44.539510            106.257081          
     angle_coeff          7           39.736882            109.394144          
     angle_coeff          8           38.296372            108.694837          
     angle_coeff          9           42.430130            106.566148          
     angle_coeff          10          48.664474            109.327275          
     angle_coeff          11          59.636712            107.627172          
     angle_coeff          12          44.566367            107.474783          
     angle_coeff          13          35.379859            111.415199          
     angle_coeff          14          55.398823            112.803517          
     angle_coeff          15          49.016813            112.496239          
     angle_coeff          16          68.466869            110.755255          

     # Dihedral interactions
     dihedral_coeff       1          opls                  0.120045            -0.042386             0.226783            -0.014429            
     dihedral_coeff       2          opls                 -0.295615            -0.050975             0.490844            -0.022427            
     dihedral_coeff       3          opls                  0.024778            -1.274825             0.350015            -0.145992            
     dihedral_coeff       4          opls                 -0.013283             0.741936             0.065345            -0.519363            
     dihedral_coeff       5          opls                 -0.008756             0.978821             0.651133             0.489452            
     dihedral_coeff       6          opls                  1.341356             0.185276             0.184832             0.098408            
     dihedral_coeff       7          opls                  0.953054             0.837056             0.417482             0.132436            
     dihedral_coeff       8          opls                 -2.686701            -1.229477             0.432806             0.091171            
     dihedral_coeff       9          opls                 -0.095873             0.068190             0.411971             0.016949            
     dihedral_coeff       10         opls                 -0.355428            -0.293052             0.179612            -0.027556            
     dihedral_coeff       11         opls                 -0.492435             2.077318             0.300810            -0.110816            
     dihedral_coeff       12         opls                 -2.159450            -1.250822             1.241920            -0.036692            
