#Run DFT-D3 single point of the dimer
! wB97X-D3 def2-TZVP TIGHTSCF  CHELPG PAL8

%base "127_charges"

%scf
MaxIter 1000
end
%output
  Print[ P_Mayer ] 1
  Print[ P_NatPop ] 1
  Print[ P_Hirshfeld ] 1
  Print[ P_Mulliken ] 1
  Print [ P_Loewdin ] 1
end

* xyz 0 1
  C                      -10.098520           10.833077            -6.815279           
  O                      -10.981571           11.908553            -6.668838           
  H                      -11.639317           11.588059            -6.074430           
  H                      -9.229156            11.043200            -6.215133           
  H                      -10.519480           9.872046             -6.504603           
  H                      -9.689245            10.734752            -7.778384           
*
