#Run DFT-D3 single point of the dimer
! wB97X-D3 def2-TZVP TIGHTSCF CHELPG PMODEL PAL8

%base "12-84_DFT_AB"

%scf
MaxIter 1000
end

* xyz 0 1
  C                      -4.658780            -2.037883            7.649658            
  O                      -5.337638            -1.572166            6.540238            
  H                      -6.235660            -1.469603            6.901389            
  H                      -3.612432            -1.652803            7.614765            
  H                      -5.188026            -1.588476            8.460927            
  H                      -4.629709            -3.094023            7.716798            
  C                      -5.089564            -6.346030            7.077743            
  O                      -6.465300            -6.133136            6.927184            
  H                      -6.798112            -5.651534            7.717625            
  H                      -4.701708            -6.957811            6.244498            
  H                      -4.549811            -5.454992            7.041897            
  H                      -4.832682            -6.756922            8.050849            
*

#Run DFT-D3 single point of the molecule with dimer basis set
$new_job
%base "12-84_DFT_A"
! wB97X-D3 def2-TZVP TIGHTSCF CHELPG PMODEL

%scf
MaxIter 1000
end

* xyz 0 1
  C                      -4.658780            -2.037883            7.649658            
  O                      -5.337638            -1.572166            6.540238            
  H                      -6.235660            -1.469603            6.901389            
  H                      -3.612432            -1.652803            7.614765            
  H                      -5.188026            -1.588476            8.460927            
  H                      -4.629709            -3.094023            7.716798            
  C                    : -5.089564            -6.346030            7.077743            
  O                    : -6.465300            -6.133136            6.927184            
  H                    : -6.798112            -5.651534            7.717625            
  H                    : -4.701708            -6.957811            6.244498            
  H                    : -4.549811            -5.454992            7.041897            
  H                    : -4.832682            -6.756922            8.050849            
*

#Run DFT-D3 single point of the particle with dimer basis set
$new_job
%base "12-84_DFT_B"
! wB97X-D3 def2-TZVP TIGHTSCF CHELPG PMODEL

%scf
MaxIter 1000
end

* xyz 0 1
  C                    : -4.658780            -2.037883            7.649658            
  O                    : -5.337638            -1.572166            6.540238            
  H                    : -6.235660            -1.469603            6.901389            
  H                    : -3.612432            -1.652803            7.614765            
  H                    : -5.188026            -1.588476            8.460927            
  H                    : -4.629709            -3.094023            7.716798            
  C                      -5.089564            -6.346030            7.077743            
  O                      -6.465300            -6.133136            6.927184            
  H                      -6.798112            -5.651534            7.717625            
  H                      -4.701708            -6.957811            6.244498            
  H                      -4.549811            -5.454992            7.041897            
  H                      -4.832682            -6.756922            8.050849            
*
