#Run DFT-D3 single point of the dimer
! wB97X-D3 def2-TZVP TIGHTSCF  CHELPG PAL8

%base "3_charges"

%scf
MaxIter 1000
end
%output
  Print[ P_Mayer ] 1
  Print[ P_NatPop ] 1
  Print[ P_Hirshfeld ] 1
  Print[ P_Mulliken ] 1
  Print [ P_Loewdin ] 1
end

* xyz 0 1
  C                      7.449275             5.855548             -3.125336           
  O                      6.806401             6.701645             -2.174823           
  H                      7.231785             6.609448             -1.354202           
  H                      7.131053             5.972635             -4.191377           
  H                      8.536819             6.007422             -2.936056           
  H                      7.338949             4.778704             -2.898458           
*
