     # Non-bonded interactions (pair-wise)
     pair_coeff           1          1          lj/cut/coul/long      0.003575             2.478154            
     pair_coeff           1          2          lj/cut/coul/long      0.021678             3.262640            
     pair_coeff           1          3          lj/cut/coul/long      0.016479             3.198141            
     pair_coeff           2          2          lj/cut/coul/long      0.378637             3.601095            
     pair_coeff           2          3          lj/cut/coul/long      0.272340             3.562601            
     pair_coeff           3          3          lj/cut/coul/long      0.196757             3.521908            

     # Stretching interactions
     bond_coeff           1           394.871935           1.086622            
     bond_coeff           2           193.627886           1.943033            
     bond_coeff           3           325.251626           1.508077            

     # Bending interactions
     angle_coeff          1           39.559632            109.709467          
     angle_coeff          2           46.563438            106.744564          
     angle_coeff          3           43.011066            111.832534          
     angle_coeff          4           63.781927            109.445157          

     # Dihedral interactions
     dihedral_coeff       1          opls                  0.391897             0.143131             0.026113             0.159114            
     dihedral_coeff       2          opls                 -0.988733             0.065892             0.786339            -0.208112            
     dihedral_coeff       3          opls                  1.663471            -1.454063             1.456692            -0.268416            
