     # Non-bonded interactions (pair-wise)
     pair_coeff           1          1          lj/cut/coul/long      0.224413             3.507673            
     pair_coeff           1          2          lj/cut/coul/long      0.009518             3.188590            
     pair_coeff           1          3          lj/cut/coul/long      0.152649             3.489031            
     pair_coeff           2          2          lj/cut/coul/long      0.001000             2.491791            
     pair_coeff           2          3          lj/cut/coul/long      0.006641             3.158240            
     pair_coeff           3          3          lj/cut/coul/long      0.103944             3.469877            

     # Stretching interactions
     bond_coeff           1           228.348100           1.768114            
     bond_coeff           2           391.852055           1.086957            
     bond_coeff           3           281.963605           1.532854            

     # Bending interactions
     angle_coeff          1           92.837973            109.618719          
     angle_coeff          2           48.883396            107.957214          
     angle_coeff          3           62.690005            110.443760          
     angle_coeff          4           42.011192            110.345121          

     # Dihedral interactions
     dihedral_coeff       1          opls                  2.647638             0.612398             3.022214             0.247185            
     dihedral_coeff       2          opls                 -2.281696             0.766126            -0.418949            -1.447105            
     dihedral_coeff       3          opls                 -3.912029            -3.434858            -3.586870            -1.593270            
