     # Non-bonded interactions (pair-wise)
     pair_coeff           1          1          lj/cut/coul/long      0.024470             2.445635            
     pair_coeff           1          2          lj/cut/coul/long      0.018597             2.443774            
     pair_coeff           1          3          lj/cut/coul/long      0.003317             2.229575            
     pair_coeff           1          4          lj/cut/coul/long      0.039399             3.057702            
     pair_coeff           1          5          lj/cut/coul/long      0.021501             3.541806            
     pair_coeff           1          6          lj/cut/coul/long      0.036583             3.052203            
     pair_coeff           1          7          lj/cut/coul/long      0.037948             3.062212            
     pair_coeff           1          8          lj/cut/coul/long      0.034855             2.827321            
     pair_coeff           2          2          lj/cut/coul/long      0.014134             2.441906            
     pair_coeff           2          3          lj/cut/coul/long      0.002529             2.226616            
     pair_coeff           2          4          lj/cut/coul/long      0.029842             3.057094            
     pair_coeff           2          5          lj/cut/coul/long      0.016274             3.541514            
     pair_coeff           2          6          lj/cut/coul/long      0.027710             3.051590            
     pair_coeff           2          7          lj/cut/coul/long      0.028743             3.061608            
     pair_coeff           2          8          lj/cut/coul/long      0.026420             2.826421            
     pair_coeff           3          3          lj/cut/coul/long      0.001000             1.779072            
     pair_coeff           3          4          lj/cut/coul/long      0.003451             2.998042            
     pair_coeff           3          5          lj/cut/coul/long      0.001754             3.514015            
     pair_coeff           3          6          lj/cut/coul/long      0.003209             2.991970            
     pair_coeff           3          7          lj/cut/coul/long      0.003320             3.003016            
     pair_coeff           3          8          lj/cut/coul/long      0.003301             2.736222            
     pair_coeff           4          4          lj/cut/coul/long      0.139401             3.352830            
     pair_coeff           4          5          lj/cut/coul/long      0.101278             3.702781            
     pair_coeff           4          6          lj/cut/coul/long      0.128844             3.349368            
     pair_coeff           4          7          lj/cut/coul/long      0.134768             3.355680            
     pair_coeff           4          8          lj/cut/coul/long      0.098280             3.219745            
     pair_coeff           5          5          lj/cut/coul/long      0.092140             3.938794            
     pair_coeff           5          6          lj/cut/coul/long      0.093347             3.700676            
     pair_coeff           5          7          lj/cut/coul/long      0.098136             3.704517            
     pair_coeff           5          8          lj/cut/coul/long      0.063556             3.625471            
     pair_coeff           6          6          lj/cut/coul/long      0.119091             3.345888            
     pair_coeff           6          7          lj/cut/coul/long      0.124558             3.352232            
     pair_coeff           6          8          lj/cut/coul/long      0.090993             3.215503            
     pair_coeff           7          7          lj/cut/coul/long      0.130293             3.358517            
     pair_coeff           7          8          lj/cut/coul/long      0.094881             3.223232            
     pair_coeff           8          8          lj/cut/coul/long      0.074962             3.051656            

     # Stretching interactions
     bond_coeff           1           377.846244           1.093155            
     bond_coeff           2           381.739730           1.091779            
     bond_coeff           3           374.532435           1.093602            
     bond_coeff           4           603.593583           0.959034            
     bond_coeff           5           312.150411           1.521143            
     bond_coeff           6           289.799684           1.521348            
     bond_coeff           7           296.164695           1.523639            
     bond_coeff           8           325.671298           1.424040            

     # Bending interactions
     angle_coeff          1           41.552646            107.471780          
     angle_coeff          2           43.107380            110.868768          
     angle_coeff          3           39.250579            108.174262          
     angle_coeff          4           44.209810            109.913457          
     angle_coeff          5           44.981155            106.892104          
     angle_coeff          6           33.420716            111.426941          
     angle_coeff          7           33.554687            107.712905          
     angle_coeff          8           44.040929            106.356455          
     angle_coeff          9           90.180358            115.887353          
     angle_coeff          10          47.083583            110.610643          
     angle_coeff          11          47.516707            110.376406          
     angle_coeff          12          63.871380            108.777997          
     angle_coeff          13          83.180110            106.383849          

     # Dihedral interactions
     dihedral_coeff       1          opls                 -0.071388             0.059621             0.499908             0.027498            
     dihedral_coeff       2          opls                  0.025073            -0.250970            -0.136523            -0.174084            
     dihedral_coeff       3          opls                  0.267582             0.367522             0.511894             0.066548            
     dihedral_coeff       4          opls                  0.089712            -0.275585             0.791552             0.002975            
     dihedral_coeff       5          opls                 -0.552512            -0.204680            -0.185373            -0.199602            
     dihedral_coeff       6          opls                  0.285945             0.286162             1.079794            -0.049677            
     dihedral_coeff       7          opls                 -0.682285            -0.201973             0.200109            -0.024905            
     dihedral_coeff       8          opls                 -0.419359            -0.036374             0.486490            -0.196032            
     dihedral_coeff       9          opls                  0.737736            -0.096529             0.245901            -0.236582            
     dihedral_coeff       10         opls                 -0.611555            -0.048893             0.127411            -0.139117            
     dihedral_coeff       11         opls                  0.902910            -1.279472            -0.788599            -0.000762            
