#Run DFT geometry optimization
! wB97X-D3 def2-TZVP TIGHTSCF Grid5 FinalGrid6 Opt CHELPG PAL4

%base "4_geo_opt"
%geom MaxIter 500
end

%geom
  Constraints
    { B 2 1 C }
  end
end


* xyz 0 1
  C                    3.011268             -1.180975            0.598540            
  O                    4.394633             -1.128128            0.874356            
  H                    4.772235             -0.378944            0.412445            
  H                    2.806395             -1.319043            -0.469301           
  H                    2.611593             -2.040343            1.135947            
  H                    2.484718             -0.284569            0.945707            
*
