     # Non-bonded interactions (pair-wise)
     pair_coeff           1          1          lj/cut/coul/long      0.001853             2.654488            
     pair_coeff           1          2          lj/cut/coul/long      0.000751             2.399323            
     pair_coeff           1          3          lj/cut/coul/long      0.015379             3.100344            
     pair_coeff           1          4          lj/cut/coul/long      0.008803             3.031853            
     pair_coeff           1          5          lj/cut/coul/long      0.019479             2.697495            
     pair_coeff           2          2          lj/cut/coul/long      0.001000             1.779072            
     pair_coeff           2          3          lj/cut/coul/long      0.004143             3.000015            
     pair_coeff           2          4          lj/cut/coul/long      0.002448             2.918235            
     pair_coeff           2          5          lj/cut/coul/long      0.007337             2.468394            
     pair_coeff           3          3          lj/cut/coul/long      0.201746             3.355086            
     pair_coeff           3          4          lj/cut/coul/long      0.109547             3.309919            
     pair_coeff           3          5          lj/cut/coul/long      0.171204             3.120616            
     pair_coeff           4          4          lj/cut/coul/long      0.059914             3.261442            
     pair_coeff           4          5          lj/cut/coul/long      0.097459             3.054469            
     pair_coeff           5          5          lj/cut/coul/long      0.206504             2.737325            

     # Stretching interactions
     bond_coeff           1           351.538208           1.104921            
     bond_coeff           2           600.199897           0.961512            
     bond_coeff           3           438.517903           1.343054            
     bond_coeff           4           1019.290180          1.187127            

     # Bending interactions
     angle_coeff          1           48.093871            113.655310          
     angle_coeff          2           43.477675            123.783707          
     angle_coeff          3           51.567708            110.008191          
     angle_coeff          4           100.048887           122.552706          

     # Dihedral interactions
     dihedral_coeff       1          opls                  0.905778             5.500800            -0.284063             0.265137            
     dihedral_coeff       2          opls                 -2.881774             5.397064            -0.962252            -0.129423            
