     # Non-bonded interactions (pair-wise)
     pair_coeff           1          1          lj/cut/coul/long      0.224413             3.507673            
     pair_coeff           1          2          lj/cut/coul/long      0.009518             3.188590            
     pair_coeff           1          3          lj/cut/coul/long      0.045057             3.182135            
     pair_coeff           1          4          lj/cut/coul/long      0.197336             3.442299            
     pair_coeff           1          5          lj/cut/coul/long      0.232422             3.456799            
     pair_coeff           2          2          lj/cut/coul/long      0.001000             2.491791            
     pair_coeff           2          3          lj/cut/coul/long      0.004939             2.469252            
     pair_coeff           2          4          lj/cut/coul/long      0.009220             3.079074            
     pair_coeff           2          5          lj/cut/coul/long      0.010608             3.104148            
     pair_coeff           3          3          lj/cut/coul/long      0.024470             2.445635            
     pair_coeff           3          4          lj/cut/coul/long      0.043773             3.071378            
     pair_coeff           3          5          lj/cut/coul/long      0.050325             3.096760            
     pair_coeff           4          4          lj/cut/coul/long      0.176040             3.370056            
     pair_coeff           4          5          lj/cut/coul/long      0.206641             3.386155            
     pair_coeff           5          5          lj/cut/coul/long      0.242755             3.401880            

     # Stretching interactions
     bond_coeff           1           216.947511           1.778850            
     bond_coeff           2           394.273259           1.085971            
     bond_coeff           3           381.789515           1.090480            
     bond_coeff           4           317.937078           1.508988            

     # Bending interactions
     angle_coeff          1           83.942144            110.255696          
     angle_coeff          2           51.071615            106.089769          
     angle_coeff          3           67.188518            110.880902          
     angle_coeff          4           39.044769            112.205977          
     angle_coeff          5           39.620099            109.010962          
     angle_coeff          6           47.630723            109.613260          

     # Dihedral interactions
     dihedral_coeff       1          opls                  0.075760            -0.018172             0.753540            -0.057459            
     dihedral_coeff       2          opls                 -0.346916            -0.128775            -0.125463            -0.083241            
