#Run DFT-D3 single point of the dimer
! wB97X-D3 def2-TZVP TIGHTSCF CHELPG PMODEL PAL8

%base "18-172_DFT_AB"

%scf
MaxIter 1000
end

* xyz 0 1
  C                      -3.115504            7.001241             2.301586            
  O                      -3.053146            6.462424             0.964257            
  H                      -2.899011            7.214064             0.348305            
  H                      -3.798502            7.837995             2.319530            
  H                      -3.430143            6.398298             3.171585            
  H                      -2.108414            7.378747             2.531896            
  C                      -5.233125            4.057205             1.120172            
  O                      -4.049725            4.015248             0.367915            
  H                      -3.640704            4.844211             0.494158            
  H                      -5.756371            5.064788             1.065926            
  H                      -5.982062            3.392982             0.703762            
  H                      -5.052303            3.785532             2.221070            
*

#Run DFT-D3 single point of the molecule with dimer basis set
$new_job
%base "18-172_DFT_A"
! wB97X-D3 def2-TZVP TIGHTSCF CHELPG PMODEL

%scf
MaxIter 1000
end

* xyz 0 1
  C                      -3.115504            7.001241             2.301586            
  O                      -3.053146            6.462424             0.964257            
  H                      -2.899011            7.214064             0.348305            
  H                      -3.798502            7.837995             2.319530            
  H                      -3.430143            6.398298             3.171585            
  H                      -2.108414            7.378747             2.531896            
  C                    : -5.233125            4.057205             1.120172            
  O                    : -4.049725            4.015248             0.367915            
  H                    : -3.640704            4.844211             0.494158            
  H                    : -5.756371            5.064788             1.065926            
  H                    : -5.982062            3.392982             0.703762            
  H                    : -5.052303            3.785532             2.221070            
*

#Run DFT-D3 single point of the particle with dimer basis set
$new_job
%base "18-172_DFT_B"
! wB97X-D3 def2-TZVP TIGHTSCF CHELPG PMODEL

%scf
MaxIter 1000
end

* xyz 0 1
  C                    : -3.115504            7.001241             2.301586            
  O                    : -3.053146            6.462424             0.964257            
  H                    : -2.899011            7.214064             0.348305            
  H                    : -3.798502            7.837995             2.319530            
  H                    : -3.430143            6.398298             3.171585            
  H                    : -2.108414            7.378747             2.531896            
  C                      -5.233125            4.057205             1.120172            
  O                      -4.049725            4.015248             0.367915            
  H                      -3.640704            4.844211             0.494158            
  H                      -5.756371            5.064788             1.065926            
  H                      -5.982062            3.392982             0.703762            
  H                      -5.052303            3.785532             2.221070            
*
