#Run DFT-D3 single point of the dimer
! wB97X-D3 def2-TZVP TIGHTSCF  CHELPG PAL8

%base "118_charges"

%scf
MaxIter 1000
end
%output
  Print[ P_Mayer ] 1
  Print[ P_NatPop ] 1
  Print[ P_Hirshfeld ] 1
  Print[ P_Mulliken ] 1
  Print [ P_Loewdin ] 1
end

* xyz 0 1
  C                      -11.563442           -2.743774            10.793260           
  O                      -11.398090           -1.572090            11.423855           
  H                      -12.278495           -1.268645            11.544839           
  H                      -12.238688           -3.378661            11.467688           
  H                      -11.903864           -2.651601            9.730400            
  H                      -10.636651           -3.233010            10.708802           
*
