#Run DFT-D3 single point of the dimer
! wB97X-D3 def2-TZVP TIGHTSCF  CHELPG PAL8

%base "83_charges"

%scf
MaxIter 1000
end
%output
  Print[ P_Mayer ] 1
  Print[ P_NatPop ] 1
  Print[ P_Hirshfeld ] 1
  Print[ P_Mulliken ] 1
  Print [ P_Loewdin ] 1
end

* xyz 0 1
  C                      -7.212778            -0.184821            -8.502989           
  O                      -7.288164            -1.078064            -7.441336           
  H                      -7.733234            -1.880886            -7.644668           
  H                      -6.738976            -0.567749            -9.454886           
  H                      -8.192273            -0.070033            -8.844133           
  H                      -6.757635            0.784107             -8.299056           
*
