     # Non-bonded interactions (pair-wise)
     pair_coeff           1          1          lj/cut/coul/long      0.280833             3.414637            
     pair_coeff           1          2          lj/cut/coul/long      0.022870             3.111884            
     pair_coeff           1          3          lj/cut/coul/long      0.053669             3.106976            
     pair_coeff           1          4          lj/cut/coul/long      0.206682             3.400364            
     pair_coeff           1          5          lj/cut/coul/long      0.248376             3.394939            
     pair_coeff           2          2          lj/cut/coul/long      0.004193             2.477211            
     pair_coeff           2          3          lj/cut/coul/long      0.010122             2.461676            
     pair_coeff           2          4          lj/cut/coul/long      0.017157             3.088998            
     pair_coeff           2          5          lj/cut/coul/long      0.020774             3.080201            
     pair_coeff           3          3          lj/cut/coul/long      0.024470             2.445635            
     pair_coeff           3          4          lj/cut/coul/long      0.040280             3.083904            
     pair_coeff           3          5          lj/cut/coul/long      0.048779             3.075034            
     pair_coeff           4          4          lj/cut/coul/long      0.152209             3.385785            
     pair_coeff           4          5          lj/cut/coul/long      0.182960             3.380241            
     pair_coeff           5          5          lj/cut/coul/long      0.219945             3.374652            

     # Stretching interactions
     bond_coeff           1           223.050600           1.789454            
     bond_coeff           2           387.624526           1.088459            
     bond_coeff           3           385.226802           1.090335            
     bond_coeff           4           332.724229           1.511681            

     # Bending interactions
     angle_coeff          1           52.396044            106.333438          
     angle_coeff          2           69.177845            111.233643          
     angle_coeff          3           40.990354            108.708780          
     angle_coeff          4           41.462512            111.774830          
     angle_coeff          5           40.882045            108.393562          
     angle_coeff          6           45.497998            109.548725          

     # Dihedral interactions
     dihedral_coeff       1          opls                  0.106824            -0.380428             0.842096            -0.105613            
     dihedral_coeff       2          opls                 -0.133780             0.129227             0.153863            -0.048283            
