#Run DFT-D3 single point of the dimer
! wB97X-D3 def2-TZVP TIGHTSCF CHELPG PMODEL PAL8

%base "10-147_DFT_AB"

%scf
MaxIter 1000
end

* xyz 0 1
  C                      -2.728455            -8.294067            -3.970005           
  O                      -1.346350            -8.753726            -4.049427           
  H                      -1.341560            -9.587864            -3.613665           
  H                      -3.399248            -9.087153            -4.171375           
  H                      -2.930991            -7.956123            -2.995674           
  H                      -2.988727            -7.505298            -4.671363           
  C                      1.399449             -3.664081            -2.969672           
  O                      0.705030             -4.800889            -3.411069           
  H                      1.369790             -5.476157            -3.502879           
  H                      1.257249             -2.786384            -3.541360           
  H                      1.256852             -3.331110            -1.938535           
  H                      2.496382             -3.861510            -3.022179           
*

#Run DFT-D3 single point of the molecule with dimer basis set
$new_job
%base "10-147_DFT_A"
! wB97X-D3 def2-TZVP TIGHTSCF CHELPG PMODEL

%scf
MaxIter 1000
end

* xyz 0 1
  C                      -2.728455            -8.294067            -3.970005           
  O                      -1.346350            -8.753726            -4.049427           
  H                      -1.341560            -9.587864            -3.613665           
  H                      -3.399248            -9.087153            -4.171375           
  H                      -2.930991            -7.956123            -2.995674           
  H                      -2.988727            -7.505298            -4.671363           
  C                    : 1.399449             -3.664081            -2.969672           
  O                    : 0.705030             -4.800889            -3.411069           
  H                    : 1.369790             -5.476157            -3.502879           
  H                    : 1.257249             -2.786384            -3.541360           
  H                    : 1.256852             -3.331110            -1.938535           
  H                    : 2.496382             -3.861510            -3.022179           
*

#Run DFT-D3 single point of the particle with dimer basis set
$new_job
%base "10-147_DFT_B"
! wB97X-D3 def2-TZVP TIGHTSCF CHELPG PMODEL

%scf
MaxIter 1000
end

* xyz 0 1
  C                    : -2.728455            -8.294067            -3.970005           
  O                    : -1.346350            -8.753726            -4.049427           
  H                    : -1.341560            -9.587864            -3.613665           
  H                    : -3.399248            -9.087153            -4.171375           
  H                    : -2.930991            -7.956123            -2.995674           
  H                    : -2.988727            -7.505298            -4.671363           
  C                      1.399449             -3.664081            -2.969672           
  O                      0.705030             -4.800889            -3.411069           
  H                      1.369790             -5.476157            -3.502879           
  H                      1.257249             -2.786384            -3.541360           
  H                      1.256852             -3.331110            -1.938535           
  H                      2.496382             -3.861510            -3.022179           
*
