#Run DFT-D3 single point of the dimer
! wB97X-D3 def2-TZVP TIGHTSCF CHELPG PMODEL PAL8

%base "7-177_DFT_AB"

%scf
MaxIter 1000
end

* xyz 0 1
  C                      -10.599318           -1.310426            -3.237180           
  O                      -10.930935           -2.249234            -4.256486           
  H                      -10.881077           -3.128684            -3.872417           
  H                      -11.146237           -1.432774            -2.289674           
  H                      -9.492810            -1.357726            -3.027608           
  H                      -10.780233           -0.284010            -3.640808           
  C                      -9.846435            -5.397016            -6.735029           
  O                      -10.906615           -4.719430            -6.116699           
  H                      -11.329535           -4.157986            -6.758212           
  H                      -9.455348            -6.246372            -6.047838           
  H                      -10.094490           -5.756510            -7.684224           
  H                      -9.010506            -4.723925            -6.991346           
*

#Run DFT-D3 single point of the molecule with dimer basis set
$new_job
%base "7-177_DFT_A"
! wB97X-D3 def2-TZVP TIGHTSCF CHELPG PMODEL

%scf
MaxIter 1000
end

* xyz 0 1
  C                      -10.599318           -1.310426            -3.237180           
  O                      -10.930935           -2.249234            -4.256486           
  H                      -10.881077           -3.128684            -3.872417           
  H                      -11.146237           -1.432774            -2.289674           
  H                      -9.492810            -1.357726            -3.027608           
  H                      -10.780233           -0.284010            -3.640808           
  C                    : -9.846435            -5.397016            -6.735029           
  O                    : -10.906615           -4.719430            -6.116699           
  H                    : -11.329535           -4.157986            -6.758212           
  H                    : -9.455348            -6.246372            -6.047838           
  H                    : -10.094490           -5.756510            -7.684224           
  H                    : -9.010506            -4.723925            -6.991346           
*

#Run DFT-D3 single point of the particle with dimer basis set
$new_job
%base "7-177_DFT_B"
! wB97X-D3 def2-TZVP TIGHTSCF CHELPG PMODEL

%scf
MaxIter 1000
end

* xyz 0 1
  C                    : -10.599318           -1.310426            -3.237180           
  O                    : -10.930935           -2.249234            -4.256486           
  H                    : -10.881077           -3.128684            -3.872417           
  H                    : -11.146237           -1.432774            -2.289674           
  H                    : -9.492810            -1.357726            -3.027608           
  H                    : -10.780233           -0.284010            -3.640808           
  C                      -9.846435            -5.397016            -6.735029           
  O                      -10.906615           -4.719430            -6.116699           
  H                      -11.329535           -4.157986            -6.758212           
  H                      -9.455348            -6.246372            -6.047838           
  H                      -10.094490           -5.756510            -7.684224           
  H                      -9.010506            -4.723925            -6.991346           
*
