#Run DFT geometry optimization
! wB97X-D3 def2-TZVP TIGHTSCF Grid5 FinalGrid6 Opt CHELPG PAL4

%base "1_geo_opt"
%geom MaxIter 500
end

%geom
  Constraints
    { A 5 0 1 C }
  end
end


* xyz 0 1
  C                    3.011308             -1.180897            0.598492            
  O                    4.395248             -1.132479            0.872226            
  H                    4.772196             -0.379022            0.412493            
  H                    2.806434             -1.318965            -0.469350           
  H                    2.611632             -2.040265            1.135898            
  H                    2.481461             -0.285930            0.944354            
*
