#Run DFT-D3 single point of the dimer
! wB97X-D3 def2-TZVP TIGHTSCF CHELPG PMODEL PAL8

%base "19-27_DFT_AB"

%scf
MaxIter 1000
end

* xyz 0 1
  C                      -9.778594            2.584819             -7.098236           
  O                      -10.503116           3.623638             -6.480022           
  H                      -10.501269           4.334988             -7.158476           
  H                      -9.911806            2.435577             -8.131833           
  H                      -8.678102            2.671316             -7.052734           
  H                      -9.924804            1.624095             -6.681747           
  C                      -7.953406            5.982523             -7.280825           
  O                      -7.359437            5.843078             -5.989491           
  H                      -6.422112            5.970046             -6.083202           
  H                      -7.363661            5.353396             -8.045738           
  H                      -8.952876            5.610469             -7.321396           
  H                      -8.057900            7.016053             -7.638671           
*

#Run DFT-D3 single point of the molecule with dimer basis set
$new_job
%base "19-27_DFT_A"
! wB97X-D3 def2-TZVP TIGHTSCF CHELPG PMODEL

%scf
MaxIter 1000
end

* xyz 0 1
  C                      -9.778594            2.584819             -7.098236           
  O                      -10.503116           3.623638             -6.480022           
  H                      -10.501269           4.334988             -7.158476           
  H                      -9.911806            2.435577             -8.131833           
  H                      -8.678102            2.671316             -7.052734           
  H                      -9.924804            1.624095             -6.681747           
  C                    : -7.953406            5.982523             -7.280825           
  O                    : -7.359437            5.843078             -5.989491           
  H                    : -6.422112            5.970046             -6.083202           
  H                    : -7.363661            5.353396             -8.045738           
  H                    : -8.952876            5.610469             -7.321396           
  H                    : -8.057900            7.016053             -7.638671           
*

#Run DFT-D3 single point of the particle with dimer basis set
$new_job
%base "19-27_DFT_B"
! wB97X-D3 def2-TZVP TIGHTSCF CHELPG PMODEL

%scf
MaxIter 1000
end

* xyz 0 1
  C                    : -9.778594            2.584819             -7.098236           
  O                    : -10.503116           3.623638             -6.480022           
  H                    : -10.501269           4.334988             -7.158476           
  H                    : -9.911806            2.435577             -8.131833           
  H                    : -8.678102            2.671316             -7.052734           
  H                    : -9.924804            1.624095             -6.681747           
  C                      -7.953406            5.982523             -7.280825           
  O                      -7.359437            5.843078             -5.989491           
  H                      -6.422112            5.970046             -6.083202           
  H                      -7.363661            5.353396             -8.045738           
  H                      -8.952876            5.610469             -7.321396           
  H                      -8.057900            7.016053             -7.638671           
*
