     # Non-bonded interactions (pair-wise)
     pair_coeff           1          1          lj/cut/coul/long      0.006702             2.492673            
     pair_coeff           1          2          lj/cut/coul/long      0.002572             2.447979            
     pair_coeff           1          3          lj/cut/coul/long      0.021430             3.171677            
     pair_coeff           1          4          lj/cut/coul/long      0.027645             2.928182            
     pair_coeff           2          2          lj/cut/coul/long      0.001000             2.398789            
     pair_coeff           2          3          lj/cut/coul/long      0.007561             3.158731            
     pair_coeff           2          4          lj/cut/coul/long      0.009904             2.908758            
     pair_coeff           3          3          lj/cut/coul/long      0.164811             3.486475            
     pair_coeff           3          4          lj/cut/coul/long      0.167885             3.348036            
     pair_coeff           4          4          lj/cut/coul/long      0.185030             3.173168            

     # Stretching interactions
     bond_coeff           1           343.574079           1.101641            
     bond_coeff           2           509.552153           1.010306            
     bond_coeff           3           309.158745           1.538834            
     bond_coeff           4           347.588950           1.476510            

     # Bending interactions
     angle_coeff          1           40.298398            106.544317          
     angle_coeff          2           58.704882            108.885096          
     angle_coeff          3           64.756278            108.727867          
     angle_coeff          4           44.566367            107.474783          
     angle_coeff          5           31.853028            109.616897          
     angle_coeff          6           82.006767            110.395235          

     # Dihedral interactions
     dihedral_coeff       1          opls                  6.684895            -0.365678             0.198190             1.174520            
     dihedral_coeff       2          opls                 -9.357950             1.006810             0.394173            -0.069128            
     dihedral_coeff       3          opls                 -2.542751             0.390068             0.294637            -0.140218            
     dihedral_coeff       4          opls                  4.761533            -1.205606             0.341192            -0.150443            
     dihedral_coeff       5          opls                  10.299643           -4.433618             1.347170            -0.949908            
