#Run DFT-D3 single point of the dimer
! wB97X-D3 def2-TZVP TIGHTSCF  CHELPG PAL8

%base "79_charges"

%scf
MaxIter 1000
end
%output
  Print[ P_Mayer ] 1
  Print[ P_NatPop ] 1
  Print[ P_Hirshfeld ] 1
  Print[ P_Mulliken ] 1
  Print [ P_Loewdin ] 1
end

* xyz 0 1
  C                      -0.403154            -5.813380            -8.943310           
  O                      -0.851683            -5.998602            -10.217000          
  H                      -0.081170            -6.301743            -10.767763          
  H                      -1.244636            -5.789240            -8.258040           
  H                      0.325679             -6.612716            -8.576596           
  H                      0.093464             -4.814065            -8.932198           
*
