#Run DFT geometry optimization
! wB97X-D3 def2-TZVP TIGHTSCF Grid5 FinalGrid6 Opt CHELPG PAL4

%base "7_geo_opt"
%geom MaxIter 500
end

%geom
  Constraints
    { B 2 1 C }
  end
end


* xyz 0 1
  C                    3.011386             -1.180741            0.598395            
  O                    4.394752             -1.127894            0.874211            
  H                    4.772117             -0.379178            0.412590            
  H                    2.806513             -1.318808            -0.469446           
  H                    2.611711             -2.040109            1.135802            
  H                    2.484836             -0.284335            0.945562            
*
