     # Non-bonded interactions (pair-wise)
     pair_coeff           1          1          lj/cut/coul/long      0.024470             2.445635            
     pair_coeff           1          2          lj/cut/coul/long      0.012785             2.469714            
     pair_coeff           1          3          lj/cut/coul/long      0.004946             2.450156            
     pair_coeff           1          4          lj/cut/coul/long      0.043343             3.060990            
     pair_coeff           1          5          lj/cut/coul/long      0.038794             3.122732            
     pair_coeff           1          6          lj/cut/coul/long      0.053643             2.823499            
     pair_coeff           2          2          lj/cut/coul/long      0.006702             2.492673            
     pair_coeff           2          3          lj/cut/coul/long      0.002586             2.474020            
     pair_coeff           2          4          lj/cut/coul/long      0.023645             3.068973            
     pair_coeff           2          5          lj/cut/coul/long      0.021200             3.129961            
     pair_coeff           2          6          lj/cut/coul/long      0.028984             2.835405            
     pair_coeff           3          3          lj/cut/coul/long      0.001000             2.454636            
     pair_coeff           3          4          lj/cut/coul/long      0.008834             3.062467            
     pair_coeff           3          5          lj/cut/coul/long      0.007909             3.124069            
     pair_coeff           3          6          lj/cut/coul/long      0.010913             2.825709            
     pair_coeff           4          4          lj/cut/coul/long      0.169634             3.356977            
     pair_coeff           4          5          lj/cut/coul/long      0.159487             3.396716            
     pair_coeff           4          6          lj/cut/coul/long      0.165945             3.220302            
     pair_coeff           5          5          lj/cut/coul/long      0.150647             3.434258            
     pair_coeff           5          6          lj/cut/coul/long      0.153063             3.268827            
     pair_coeff           6          6          lj/cut/coul/long      0.176497             3.046432            

     # Stretching interactions
     bond_coeff           1           383.894798           1.090820            
     bond_coeff           2           370.311190           1.095257            
     bond_coeff           3           495.989038           1.013118            
     bond_coeff           4           322.255222           1.516038            
     bond_coeff           5           337.480452           1.447074            

     # Bending interactions
     angle_coeff          1           42.038691            107.958387          
     angle_coeff          2           32.875480            110.769083          
     angle_coeff          3           43.242790            106.262667          
     angle_coeff          4           47.790084            110.281147          
     angle_coeff          5           54.153987            107.681701          
     angle_coeff          6           46.812118            109.352726          
     angle_coeff          7           54.600056            113.010974          
     angle_coeff          8           62.287441            110.520327          

     # Dihedral interactions
     dihedral_coeff       1          opls                  0.234273             0.075687             0.520669            -0.011570            
     dihedral_coeff       2          opls                 -0.999023            -0.454581            -0.014132             0.098133            
     dihedral_coeff       3          opls                  0.098478            -0.954037            -0.050663            -0.993777            
     dihedral_coeff       4          opls                  0.099963             1.007963             2.757304             0.588816            
     dihedral_coeff       5          opls                 -0.698173            -0.958363            -2.587461            -1.425940            
     dihedral_coeff       6          opls                  0.284003             0.484625             0.180186             0.364988            
