#Run DFT-D3 single point of the dimer
! wB97X-D3 def2-TZVP TIGHTSCF CHELPG PMODEL PAL8

%base "20-56_DFT_AB"

%scf
MaxIter 1000
end

* xyz 0 1
  C                      6.774995             -8.324252            -6.953877           
  O                      7.881105             -8.521997            -6.079112           
  H                      7.517149             -8.829247            -5.213137           
  H                      6.347906             -9.271718            -7.258913           
  H                      6.000089             -7.780573            -6.407686           
  H                      7.153695             -7.866640            -7.863631           
  C                      3.723239             -6.692821            -8.760477           
  O                      3.185939             -5.527655            -9.330181           
  H                      3.744187             -4.915721            -8.978648           
  H                      3.260517             -7.605005            -9.008750           
  H                      4.674823             -6.827684            -9.229260           
  H                      3.823359             -6.584099            -7.650644           
*

#Run DFT-D3 single point of the molecule with dimer basis set
$new_job
%base "20-56_DFT_A"
! wB97X-D3 def2-TZVP TIGHTSCF CHELPG PMODEL

%scf
MaxIter 1000
end

* xyz 0 1
  C                      6.774995             -8.324252            -6.953877           
  O                      7.881105             -8.521997            -6.079112           
  H                      7.517149             -8.829247            -5.213137           
  H                      6.347906             -9.271718            -7.258913           
  H                      6.000089             -7.780573            -6.407686           
  H                      7.153695             -7.866640            -7.863631           
  C                    : 3.723239             -6.692821            -8.760477           
  O                    : 3.185939             -5.527655            -9.330181           
  H                    : 3.744187             -4.915721            -8.978648           
  H                    : 3.260517             -7.605005            -9.008750           
  H                    : 4.674823             -6.827684            -9.229260           
  H                    : 3.823359             -6.584099            -7.650644           
*

#Run DFT-D3 single point of the particle with dimer basis set
$new_job
%base "20-56_DFT_B"
! wB97X-D3 def2-TZVP TIGHTSCF CHELPG PMODEL

%scf
MaxIter 1000
end

* xyz 0 1
  C                    : 6.774995             -8.324252            -6.953877           
  O                    : 7.881105             -8.521997            -6.079112           
  H                    : 7.517149             -8.829247            -5.213137           
  H                    : 6.347906             -9.271718            -7.258913           
  H                    : 6.000089             -7.780573            -6.407686           
  H                    : 7.153695             -7.866640            -7.863631           
  C                      3.723239             -6.692821            -8.760477           
  O                      3.185939             -5.527655            -9.330181           
  H                      3.744187             -4.915721            -8.978648           
  H                      3.260517             -7.605005            -9.008750           
  H                      4.674823             -6.827684            -9.229260           
  H                      3.823359             -6.584099            -7.650644           
*
