     # Non-bonded interactions (pair-wise)
     pair_coeff           1          1          lj/cut/coul/long      0.379019             3.527685            
     pair_coeff           1          2          lj/cut/coul/long      0.022587             3.201593            
     pair_coeff           1          3          lj/cut/coul/long      0.023971             3.205953            
     pair_coeff           1          4          lj/cut/coul/long      0.267108             3.491785            
     pair_coeff           2          2          lj/cut/coul/long      0.003574             2.469219            
     pair_coeff           2          3          lj/cut/coul/long      0.003681             2.484997            
     pair_coeff           2          4          lj/cut/coul/long      0.016755             3.142050            
     pair_coeff           3          3          lj/cut/coul/long      0.003796             2.500290            
     pair_coeff           3          4          lj/cut/coul/long      0.017765             3.146837            
     pair_coeff           4          4          lj/cut/coul/long      0.188998             3.453939            

     # Stretching interactions
     bond_coeff           1           311.312148           1.337490            
     bond_coeff           2           220.911593           1.813564            
     bond_coeff           3           386.579558           1.090620            
     bond_coeff           4           308.046122           1.519203            

     # Bending interactions
     angle_coeff          1           44.557380            109.706857          
     angle_coeff          2           64.521842            113.307958          
     angle_coeff          3           52.424144            97.310469           
     angle_coeff          4           41.631664            107.171915          
     angle_coeff          5           44.856843            110.167337          

     # Dihedral interactions
     dihedral_coeff       1          opls                  3.374061            -5.895436             0.368449            -0.373614            
     dihedral_coeff       2          opls                 -1.298216            -1.201896             0.309284            -0.192889            
     dihedral_coeff       3          opls                  0.163902             0.235783             0.508688            -0.051615            
     dihedral_coeff       4          opls                 -0.434081            -0.790849             0.282463            -0.047658            
     dihedral_coeff       5          opls                  0.313297             2.284469             0.580654             0.194532            
