#Run DFT-D3 single point of the dimer
! wB97X-D3 def2-TZVP TIGHTSCF  CHELPG PAL8

%base "16_charges"

%scf
MaxIter 1000
end
%output
  Print[ P_Mayer ] 1
  Print[ P_NatPop ] 1
  Print[ P_Hirshfeld ] 1
  Print[ P_Mulliken ] 1
  Print [ P_Loewdin ] 1
end

* xyz 0 1
  C                      -4.348745            2.498902             -0.395598           
  O                      -4.774556            3.269099             -1.396210           
  H                      -5.726224            3.220396             -1.374704           
  H                      -4.391854            3.008908             0.604225            
  H                      -4.971036            1.612524             -0.343536           
  H                      -3.297642            2.256578             -0.428036           
*
