#Run DFT-D3 single point of the dimer
! wB97X-D3 def2-TZVP TIGHTSCF  CHELPG PAL8

%base "101_charges"

%scf
MaxIter 1000
end
%output
  Print[ P_Mayer ] 1
  Print[ P_NatPop ] 1
  Print[ P_Hirshfeld ] 1
  Print[ P_Mulliken ] 1
  Print [ P_Loewdin ] 1
end

* xyz 0 1
  C                      6.136890             4.513762             6.511239            
  O                      6.341691             4.452216             5.096472            
  H                      7.227315             4.174487             5.012936            
  H                      6.621024             3.648944             7.024267            
  H                      6.603303             5.385847             6.873901            
  H                      5.124384             4.700633             6.804220            
*
