     # Non-bonded interactions (pair-wise)
     pair_coeff           1          1          lj/cut/coul/long      0.280833             3.414637            
     pair_coeff           1          2          lj/cut/coul/long      0.022870             3.111884            
     pair_coeff           1          3          lj/cut/coul/long      0.040646             3.106414            
     pair_coeff           1          4          lj/cut/coul/long      0.195949             3.445143            
     pair_coeff           1          5          lj/cut/coul/long      0.236291             3.420673            
     pair_coeff           2          2          lj/cut/coul/long      0.004193             2.477211            
     pair_coeff           2          3          lj/cut/coul/long      0.007691             2.459875            
     pair_coeff           2          4          lj/cut/coul/long      0.015362             3.159639            
     pair_coeff           2          5          lj/cut/coul/long      0.019093             3.121454            
     pair_coeff           3          3          lj/cut/coul/long      0.014134             2.441906            
     pair_coeff           3          4          lj/cut/coul/long      0.027278             3.154572            
     pair_coeff           3          5          lj/cut/coul/long      0.033926             3.116068            
     pair_coeff           4          4          lj/cut/coul/long      0.137092             3.474356            
     pair_coeff           4          5          lj/cut/coul/long      0.164961             3.450918            
     pair_coeff           5          5          lj/cut/coul/long      0.198836             3.426656            

     # Stretching interactions
     bond_coeff           1           227.429946           1.787734            
     bond_coeff           2           378.271638           1.089546            
     bond_coeff           3           382.301497           1.091572            
     bond_coeff           4           315.156263           1.517240            

     # Bending interactions
     angle_coeff          1           51.478389            106.670538          
     angle_coeff          2           71.124906            112.150071          
     angle_coeff          3           40.989711            108.620483          
     angle_coeff          4           41.756595            111.055855          
     angle_coeff          5           41.542672            107.333060          
     angle_coeff          6           50.053511            109.555424          
     angle_coeff          7           54.083298            110.010764          

     # Dihedral interactions
     dihedral_coeff       1          opls                 -0.376584             0.013316             0.755180             0.142800            
     dihedral_coeff       2          opls                  0.501522            -1.171972             0.743454            -0.064320            
     dihedral_coeff       3          opls                  0.098127             0.100560             0.235499            -0.024020            
     dihedral_coeff       4          opls                 -0.342927             0.076869             0.255070            -0.226893            
