     # Non-bonded interactions (pair-wise)
     pair_coeff           1          1          lj/cut/coul/long      0.024470             2.445635            
     pair_coeff           1          2          lj/cut/coul/long      0.018597             2.443774            
     pair_coeff           1          3          lj/cut/coul/long      0.015535             2.468393            
     pair_coeff           1          4          lj/cut/coul/long      0.042209             3.013400            
     pair_coeff           1          5          lj/cut/coul/long      0.039399             3.057702            
     pair_coeff           1          6          lj/cut/coul/long      0.040816             3.068688            
     pair_coeff           1          7          lj/cut/coul/long      0.037950             3.094402            
     pair_coeff           1          8          lj/cut/coul/long      0.039669             3.073349            
     pair_coeff           1          9          lj/cut/coul/long      0.038819             3.063567            
     pair_coeff           2          2          lj/cut/coul/long      0.014134             2.441906            
     pair_coeff           2          3          lj/cut/coul/long      0.011804             2.466616            
     pair_coeff           2          4          lj/cut/coul/long      0.031974             3.012746            
     pair_coeff           2          5          lj/cut/coul/long      0.029842             3.057094            
     pair_coeff           2          6          lj/cut/coul/long      0.030915             3.068090            
     pair_coeff           2          7          lj/cut/coul/long      0.028742             3.093829            
     pair_coeff           2          8          lj/cut/coul/long      0.030046             3.072756            
     pair_coeff           2          9          lj/cut/coul/long      0.029403             3.062965            
     pair_coeff           3          3          lj/cut/coul/long      0.009892             2.490147            
     pair_coeff           3          4          lj/cut/coul/long      0.027874             3.021546            
     pair_coeff           3          5          lj/cut/coul/long      0.026053             3.065279            
     pair_coeff           3          6          lj/cut/coul/long      0.026999             3.076132            
     pair_coeff           3          7          lj/cut/coul/long      0.025120             3.101544            
     pair_coeff           3          8          lj/cut/coul/long      0.026243             3.080737            
     pair_coeff           3          9          lj/cut/coul/long      0.025674             3.071073            
     pair_coeff           4          4          lj/cut/coul/long      0.148627             3.296617            
     pair_coeff           4          5          lj/cut/coul/long      0.143755             3.325317            
     pair_coeff           4          6          lj/cut/coul/long      0.150189             3.332565            
     pair_coeff           4          7          lj/cut/coul/long      0.142356             3.349726            
     pair_coeff           4          8          lj/cut/coul/long      0.146486             3.335655            
     pair_coeff           4          9          lj/cut/coul/long      0.142282             3.329180            
     pair_coeff           5          5          lj/cut/coul/long      0.139401             3.352830            
     pair_coeff           5          6          lj/cut/coul/long      0.145731             3.359787            
     pair_coeff           5          7          lj/cut/coul/long      0.138331             3.376274            
     pair_coeff           5          8          lj/cut/coul/long      0.142176             3.362754            
     pair_coeff           5          9          lj/cut/coul/long      0.138019             3.356538            
     pair_coeff           6          6          lj/cut/coul/long      0.152372             3.366672            
     pair_coeff           6          7          lj/cut/coul/long      0.144685             3.382994            
     pair_coeff           6          8          lj/cut/coul/long      0.148664             3.369609            
     pair_coeff           6          9          lj/cut/coul/long      0.144298             3.363456            
     pair_coeff           7          7          lj/cut/coul/long      0.137499             3.398932            
     pair_coeff           7          8          lj/cut/coul/long      0.141186             3.385862            
     pair_coeff           7          9          lj/cut/coul/long      0.136996             3.379856            
     pair_coeff           8          8          lj/cut/coul/long      0.145051             3.372534            
     pair_coeff           8          9          lj/cut/coul/long      0.140782             3.366408            
     pair_coeff           9          9          lj/cut/coul/long      0.136656             3.360225            

     # Stretching interactions
     bond_coeff           1           377.846244           1.093155            
     bond_coeff           2           379.945703           1.092056            
     bond_coeff           3           368.488176           1.095580            
     bond_coeff           4           369.848293           1.095398            
     bond_coeff           5           390.243799           1.088563            
     bond_coeff           6           385.812204           1.090224            
     bond_coeff           7           703.796545           1.325319            
     bond_coeff           8           335.319349           1.505095            
     bond_coeff           9           313.531893           1.522660            
     bond_coeff           10          309.870643           1.524429            
     bond_coeff           11          326.160809           1.507849            

     # Bending interactions
     angle_coeff          1           41.552646            107.471780          
     angle_coeff          2           43.036920            110.866477          
     angle_coeff          3           39.968266            107.420975          
     angle_coeff          4           44.004852            111.078454          
     angle_coeff          5           43.628825            106.010166          
     angle_coeff          6           45.160055            109.784102          
     angle_coeff          7           44.369657            109.038510          
     angle_coeff          8           42.136010            105.889985          
     angle_coeff          9           44.846853            109.238725          
     angle_coeff          10          47.593159            109.516249          
     angle_coeff          11          35.063191            118.381618          
     angle_coeff          12          38.644886            116.955021          
     angle_coeff          13          28.049180            118.649617          
     angle_coeff          14          39.054277            115.858723          
     angle_coeff          15          44.031132            125.407882          
     angle_coeff          16          55.018294            112.845880          
     angle_coeff          17          54.322349            113.157570          
     angle_coeff          18          49.578715            124.607795          

     # Dihedral interactions
     dihedral_coeff       1          opls                  0.120045            -0.042386             0.226783            -0.014429            
     dihedral_coeff       2          opls                 -0.245376            -0.062044             0.489667            -0.025549            
     dihedral_coeff       3          opls                 -0.229814             0.071383             1.046195             0.161792            
     dihedral_coeff       4          opls                 -0.004450             0.075879             0.310307            -0.075104            
     dihedral_coeff       5          opls                  0.180569             0.038269             0.490121             0.076178            
     dihedral_coeff       6          opls                 -0.374293             0.158716             0.190549             0.213099            
     dihedral_coeff       7          opls                 -0.368466            -0.059490             0.489003            -0.177959            
     dihedral_coeff       8          opls                 -0.204843             1.751808             1.341433             0.810316            
     dihedral_coeff       9          opls                 -0.078793            -0.801770            -0.163434            -0.808496            
     dihedral_coeff       10         harmonic              7.012710            -1                    2                   
     dihedral_coeff       11         harmonic              5.337183            -1                    2                   
     dihedral_coeff       12         harmonic              4.427400            -1                    2                   
     dihedral_coeff       13         opls                 -0.010804            -2.485260            -0.058284            -0.545589            
     dihedral_coeff       14         opls                 -0.423854             3.114820             0.538088             0.483874            
     dihedral_coeff       15         opls                  0.377101            -0.654072             0.128734             0.074311            
     dihedral_coeff       16         harmonic              5.188658            -1                    2                   
