#Run DFT-D3 single point of the dimer
! wB97X-D3 def2-TZVP TIGHTSCF  CHELPG PAL8

%base "185_charges"

%scf
MaxIter 1000
end
%output
  Print[ P_Mayer ] 1
  Print[ P_NatPop ] 1
  Print[ P_Hirshfeld ] 1
  Print[ P_Mulliken ] 1
  Print [ P_Loewdin ] 1
end

* xyz 0 1
  C                      9.154724             -11.721413           -6.804512           
  O                      9.141616             -12.929495           -6.090259           
  H                      8.803279             -12.746357           -5.189906           
  H                      10.221706            -11.446662           -7.018588           
  H                      8.790033             -11.772553           -7.824847           
  H                      8.734817             -10.981306           -6.165708           
*
