#Run DFT-D3 single point of the dimer
! wB97X-D3 def2-TZVP TIGHTSCF CHELPG PMODEL PAL8

%base "20-115_DFT_AB"

%scf
MaxIter 1000
end

* xyz 0 1
  C                      11.218378            -9.107412            7.618179            
  O                      10.746527            -9.380473            6.350098            
  H                      11.379990            -8.963582            5.761786            
  H                      11.897932            -8.268738            7.736445            
  H                      10.316205            -8.880650            8.214575            
  H                      11.735110            -9.956797            8.001080            
  C                      7.696313             -10.211434           5.007463            
  O                      7.958218             -9.042702            5.736758            
  H                      8.873742             -9.166333            6.057190            
  H                      8.414789             -10.235438           4.185334            
  H                      7.970635             -11.061335           5.693218            
  H                      6.696710             -10.332449           4.645116            
*

#Run DFT-D3 single point of the molecule with dimer basis set
$new_job
%base "20-115_DFT_A"
! wB97X-D3 def2-TZVP TIGHTSCF CHELPG PMODEL

%scf
MaxIter 1000
end

* xyz 0 1
  C                      11.218378            -9.107412            7.618179            
  O                      10.746527            -9.380473            6.350098            
  H                      11.379990            -8.963582            5.761786            
  H                      11.897932            -8.268738            7.736445            
  H                      10.316205            -8.880650            8.214575            
  H                      11.735110            -9.956797            8.001080            
  C                    : 7.696313             -10.211434           5.007463            
  O                    : 7.958218             -9.042702            5.736758            
  H                    : 8.873742             -9.166333            6.057190            
  H                    : 8.414789             -10.235438           4.185334            
  H                    : 7.970635             -11.061335           5.693218            
  H                    : 6.696710             -10.332449           4.645116            
*

#Run DFT-D3 single point of the particle with dimer basis set
$new_job
%base "20-115_DFT_B"
! wB97X-D3 def2-TZVP TIGHTSCF CHELPG PMODEL

%scf
MaxIter 1000
end

* xyz 0 1
  C                    : 11.218378            -9.107412            7.618179            
  O                    : 10.746527            -9.380473            6.350098            
  H                    : 11.379990            -8.963582            5.761786            
  H                    : 11.897932            -8.268738            7.736445            
  H                    : 10.316205            -8.880650            8.214575            
  H                    : 11.735110            -9.956797            8.001080            
  C                      7.696313             -10.211434           5.007463            
  O                      7.958218             -9.042702            5.736758            
  H                      8.873742             -9.166333            6.057190            
  H                      8.414789             -10.235438           4.185334            
  H                      7.970635             -11.061335           5.693218            
  H                      6.696710             -10.332449           4.645116            
*
