     # Non-bonded interactions (pair-wise)
     pair_coeff           1          1          lj/cut/coul/long      0.024470             2.445635            
     pair_coeff           1          2          lj/cut/coul/long      0.004938             2.422778            
     pair_coeff           1          3          lj/cut/coul/long      0.023130             3.477568            
     pair_coeff           1          4          lj/cut/coul/long      0.037464             3.076596            
     pair_coeff           1          5          lj/cut/coul/long      0.039946             2.953469            
     pair_coeff           2          2          lj/cut/coul/long      0.001000             2.398789            
     pair_coeff           2          3          lj/cut/coul/long      0.004442             3.473717            
     pair_coeff           2          4          lj/cut/coul/long      0.007247             3.069468            
     pair_coeff           2          5          lj/cut/coul/long      0.007757             2.944711            
     pair_coeff           3          3          lj/cut/coul/long      0.096179             3.863057            
     pair_coeff           3          4          lj/cut/coul/long      0.103315             3.659759            
     pair_coeff           3          5          lj/cut/coul/long      0.093380             3.611399            
     pair_coeff           4          4          lj/cut/coul/long      0.130078             3.376614            
     pair_coeff           4          5          lj/cut/coul/long      0.123967             3.302699            
     pair_coeff           5          5          lj/cut/coul/long      0.120575             3.219450            

     # Stretching interactions
     bond_coeff           1           376.202096           1.093474            
     bond_coeff           2           499.857611           1.012305            
     bond_coeff           3           300.629197           1.521573            
     bond_coeff           4           323.441328           1.461278            

     # Bending interactions
     angle_coeff          1           40.677252            108.326084          
     angle_coeff          2           42.342628            110.384849          
     angle_coeff          3           46.229256            107.567620          
     angle_coeff          4           40.704805            108.485159          
     angle_coeff          5           58.885354            109.896077          
     angle_coeff          6           67.561207            107.175153          

     # Dihedral interactions
     dihedral_coeff       1          opls                  0.191865             0.001531             0.652895            -0.056962            
     dihedral_coeff       2          opls                 -0.542316            -0.052067            -0.117994            -0.168261            
     dihedral_coeff       3          opls                  0.007714            -0.159800             0.372585            -0.083796            
