     # Non-bonded interactions (pair-wise)
     pair_coeff           1          1          lj/cut/coul/long      0.024470             2.445635            
     pair_coeff           1          2          lj/cut/coul/long      0.014170             2.455724            
     pair_coeff           1          3          lj/cut/coul/long      0.004946             2.450156            
     pair_coeff           1          4          lj/cut/coul/long      0.046100             2.919627            
     pair_coeff           1          5          lj/cut/coul/long      0.027446             3.193652            
     pair_coeff           1          6          lj/cut/coul/long      0.049920             3.078128            
     pair_coeff           1          7          lj/cut/coul/long      0.037742             3.063481            
     pair_coeff           1          8          lj/cut/coul/long      0.073330             2.486985            
     pair_coeff           2          2          lj/cut/coul/long      0.008210             2.465609            
     pair_coeff           2          3          lj/cut/coul/long      0.002865             2.460153            
     pair_coeff           2          4          lj/cut/coul/long      0.027128             2.923816            
     pair_coeff           2          5          lj/cut/coul/long      0.016209             3.196331            
     pair_coeff           2          6          lj/cut/coul/long      0.029444             3.081346            
     pair_coeff           2          7          lj/cut/coul/long      0.022257             3.066777            
     pair_coeff           2          8          lj/cut/coul/long      0.042562             2.496272            
     pair_coeff           3          3          lj/cut/coul/long      0.001000             2.454636            
     pair_coeff           3          4          lj/cut/coul/long      0.009386             2.921498            
     pair_coeff           3          5          lj/cut/coul/long      0.005597             3.194847            
     pair_coeff           3          6          lj/cut/coul/long      0.010175             3.079564            
     pair_coeff           3          7          lj/cut/coul/long      0.007692             3.064952            
     pair_coeff           3          8          lj/cut/coul/long      0.014839             2.491145            
     pair_coeff           4          4          lj/cut/coul/long      0.151952             3.175222            
     pair_coeff           4          5          lj/cut/coul/long      0.108299             3.370630            
     pair_coeff           4          6          lj/cut/coul/long      0.184366             3.284724            
     pair_coeff           4          7          lj/cut/coul/long      0.138097             3.274180            
     pair_coeff           4          8          lj/cut/coul/long      0.147382             2.937153            
     pair_coeff           5          5          lj/cut/coul/long      0.084885             3.521812            
     pair_coeff           5          6          lj/cut/coul/long      0.139112             3.453885            
     pair_coeff           5          7          lj/cut/coul/long      0.103675             3.445699            
     pair_coeff           5          8          lj/cut/coul/long      0.089053             3.204912            
     pair_coeff           6          6          lj/cut/coul/long      0.231539             3.378537            
     pair_coeff           6          7          lj/cut/coul/long      0.172908             3.369389            
     pair_coeff           6          8          lj/cut/coul/long      0.161138             3.091636            
     pair_coeff           7          7          lj/cut/coul/long      0.129159             3.360116            
     pair_coeff           7          8          lj/cut/coul/long      0.121738             3.077311            
     pair_coeff           8          8          lj/cut/coul/long      0.221782             2.525159            

     # Stretching interactions
     bond_coeff           1           383.532268           1.091469            
     bond_coeff           2           348.276023           1.102522            
     bond_coeff           3           546.246234           1.002348            
     bond_coeff           4           302.839101           1.512294            
     bond_coeff           5           477.476931           1.355467            
     bond_coeff           6           863.078682           1.214458            
     bond_coeff           7           385.242699           1.444491            

     # Bending interactions
     angle_coeff          1           39.468349            109.609291          
     angle_coeff          2           39.036967            110.217850          
     angle_coeff          3           41.302882            107.560396          
     angle_coeff          4           48.793028            109.264098          
     angle_coeff          5           35.330203            118.888033          
     angle_coeff          6           33.891517            120.260828          
     angle_coeff          7           49.650169            120.816595          
     angle_coeff          8           47.889723            114.521704          
     angle_coeff          9           62.351149            123.426171          
     angle_coeff          10          80.576610            121.476350          

     # Dihedral interactions
     dihedral_coeff       1          opls                 -0.007007             0.049390            -0.154539             0.139507            
     dihedral_coeff       2          opls                 -0.074662             0.051460             0.018072             0.148038            
     dihedral_coeff       3          opls                  0.141017             0.161414             0.060104            -0.791892            
     dihedral_coeff       4          opls                 -0.036380             0.154390            -0.035539             0.178521            
     dihedral_coeff       5          opls                  0.945954            -0.050667            -0.416104             0.062438            
     dihedral_coeff       6          opls                 -1.624613             0.481841             0.306130             1.675796            
     dihedral_coeff       7          opls                  0.444633             4.520806             0.487890            -0.555105            
     dihedral_coeff       8          opls                 -1.308810             4.654672            -0.361732            -0.884748            
