#Run DFT-D3 single point of the dimer
! wB97X-D3 def2-TZVP TIGHTSCF CHELPG PMODEL PAL8

%base "22-33_DFT_AB"

%scf
MaxIter 1000
end

* xyz 0 1
  C                      -7.103731            6.653923             -1.669574           
  O                      -6.894566            5.210805             -1.789627           
  H                      -7.334692            4.689197             -1.072243           
  H                      -8.194465            6.918869             -1.815733           
  H                      -6.801057            7.072376             -0.661411           
  H                      -6.560077            7.160748             -2.438667           
  C                      -7.406490            5.114962             2.194658            
  O                      -8.127863            5.716703             3.172104            
  H                      -8.698114            5.083331             3.538264            
  H                      -7.612737            5.667259             1.305622            
  H                      -6.353386            5.182250             2.467790            
  H                      -7.619469            4.045659             1.948745            
*

#Run DFT-D3 single point of the molecule with dimer basis set
$new_job
%base "22-33_DFT_A"
! wB97X-D3 def2-TZVP TIGHTSCF CHELPG PMODEL

%scf
MaxIter 1000
end

* xyz 0 1
  C                      -7.103731            6.653923             -1.669574           
  O                      -6.894566            5.210805             -1.789627           
  H                      -7.334692            4.689197             -1.072243           
  H                      -8.194465            6.918869             -1.815733           
  H                      -6.801057            7.072376             -0.661411           
  H                      -6.560077            7.160748             -2.438667           
  C                    : -7.406490            5.114962             2.194658            
  O                    : -8.127863            5.716703             3.172104            
  H                    : -8.698114            5.083331             3.538264            
  H                    : -7.612737            5.667259             1.305622            
  H                    : -6.353386            5.182250             2.467790            
  H                    : -7.619469            4.045659             1.948745            
*

#Run DFT-D3 single point of the particle with dimer basis set
$new_job
%base "22-33_DFT_B"
! wB97X-D3 def2-TZVP TIGHTSCF CHELPG PMODEL

%scf
MaxIter 1000
end

* xyz 0 1
  C                    : -7.103731            6.653923             -1.669574           
  O                    : -6.894566            5.210805             -1.789627           
  H                    : -7.334692            4.689197             -1.072243           
  H                    : -8.194465            6.918869             -1.815733           
  H                    : -6.801057            7.072376             -0.661411           
  H                    : -6.560077            7.160748             -2.438667           
  C                      -7.406490            5.114962             2.194658            
  O                      -8.127863            5.716703             3.172104            
  H                      -8.698114            5.083331             3.538264            
  H                      -7.612737            5.667259             1.305622            
  H                      -6.353386            5.182250             2.467790            
  H                      -7.619469            4.045659             1.948745            
*
