     # Non-bonded interactions (pair-wise)
     pair_coeff           1          1          lj/cut/coul/long      0.231012             3.595750            
     pair_coeff           1          2          lj/cut/coul/long      0.007448             3.239045            
     pair_coeff           1          3          lj/cut/coul/long      0.209860             3.411477            
     pair_coeff           1          4          lj/cut/coul/long      0.083488             3.432761            
     pair_coeff           2          2          lj/cut/coul/long      0.001000             2.300335            
     pair_coeff           2          3          lj/cut/coul/long      0.010002             2.879246            
     pair_coeff           2          4          lj/cut/coul/long      0.003737             2.927649            
     pair_coeff           3          3          lj/cut/coul/long      0.221100             3.157678            
     pair_coeff           3          4          lj/cut/coul/long      0.086099             3.188725            
     pair_coeff           4          4          lj/cut/coul/long      0.033637             3.218330            

     # Stretching interactions
     bond_coeff           1           226.805041           1.760356            
     bond_coeff           2           392.480810           1.086696            
     bond_coeff           3           398.141547           1.343496            

     # Bending interactions
     angle_coeff          1           78.947241            111.563593          
     angle_coeff          2           46.635988            108.483669          
     angle_coeff          3           87.009953            109.356397          
     angle_coeff          4           57.578709            109.505262          

     # Dihedral interactions
