#Run DFT geometry optimization
! wB97X-D3 def2-TZVP TIGHTSCF Grid5 FinalGrid6 Opt CHELPG PAL4

%base "8_geo_opt"
%geom MaxIter 500
end

%geom
  Constraints
    { B 5 0 C }
  end
end


* xyz 0 1
  C                    3.011163             -1.180652            0.598587            
  O                    4.394529             -1.127805            0.874403            
  H                    4.772052             -0.378777            0.412588            
  H                    2.806290             -1.318720            -0.469255           
  H                    2.611488             -2.040020            1.135993            
  H                    2.484901             -0.284736            0.945564            
*
