#Run DFT-D3 single point of the dimer
! wB97X-D3 def2-TZVP TIGHTSCF CHELPG PMODEL PAL8

%base "19-107_DFT_AB"

%scf
MaxIter 1000
end

* xyz 0 1
  C                      10.695585            5.804026             -9.585432           
  O                      10.520854            4.713502             -8.722632           
  H                      10.299957            5.135141             -7.866166           
  H                      11.089620            5.402777             -10.519049          
  H                      9.779639             6.421214             -9.795723           
  H                      11.544549            6.403537             -9.255654           
  C                      10.544457            1.920133             -10.031341          
  O                      11.767581            2.621814             -10.202342          
  H                      11.704217            3.323882             -9.586013           
  H                      9.712899             2.329701             -10.582772          
  H                      10.673492            0.950832             -10.458052          
  H                      10.221189            1.866160             -9.025832           
*

#Run DFT-D3 single point of the molecule with dimer basis set
$new_job
%base "19-107_DFT_A"
! wB97X-D3 def2-TZVP TIGHTSCF CHELPG PMODEL

%scf
MaxIter 1000
end

* xyz 0 1
  C                      10.695585            5.804026             -9.585432           
  O                      10.520854            4.713502             -8.722632           
  H                      10.299957            5.135141             -7.866166           
  H                      11.089620            5.402777             -10.519049          
  H                      9.779639             6.421214             -9.795723           
  H                      11.544549            6.403537             -9.255654           
  C                    : 10.544457            1.920133             -10.031341          
  O                    : 11.767581            2.621814             -10.202342          
  H                    : 11.704217            3.323882             -9.586013           
  H                    : 9.712899             2.329701             -10.582772          
  H                    : 10.673492            0.950832             -10.458052          
  H                    : 10.221189            1.866160             -9.025832           
*

#Run DFT-D3 single point of the particle with dimer basis set
$new_job
%base "19-107_DFT_B"
! wB97X-D3 def2-TZVP TIGHTSCF CHELPG PMODEL

%scf
MaxIter 1000
end

* xyz 0 1
  C                    : 10.695585            5.804026             -9.585432           
  O                    : 10.520854            4.713502             -8.722632           
  H                    : 10.299957            5.135141             -7.866166           
  H                    : 11.089620            5.402777             -10.519049          
  H                    : 9.779639             6.421214             -9.795723           
  H                    : 11.544549            6.403537             -9.255654           
  C                      10.544457            1.920133             -10.031341          
  O                      11.767581            2.621814             -10.202342          
  H                      11.704217            3.323882             -9.586013           
  H                      9.712899             2.329701             -10.582772          
  H                      10.673492            0.950832             -10.458052          
  H                      10.221189            1.866160             -9.025832           
*
