     # Non-bonded interactions (pair-wise)
     pair_coeff           1          1          lj/cut/coul/long      0.024470             2.445635            
     pair_coeff           1          2          lj/cut/coul/long      0.012948             2.428467            
     pair_coeff           1          3          lj/cut/coul/long      0.040582             3.107885            
     pair_coeff           1          4          lj/cut/coul/long      0.036112             3.114196            
     pair_coeff           1          5          lj/cut/coul/long      0.027515             2.782141            
     pair_coeff           2          2          lj/cut/coul/long      0.006864             2.410669            
     pair_coeff           2          3          lj/cut/coul/long      0.020789             3.102773            
     pair_coeff           2          4          lj/cut/coul/long      0.018497             3.109136            
     pair_coeff           2          5          lj/cut/coul/long      0.014228             2.773215            
     pair_coeff           3          3          lj/cut/coul/long      0.160816             3.415771            
     pair_coeff           3          4          lj/cut/coul/long      0.143856             3.419715            
     pair_coeff           3          5          lj/cut/coul/long      0.077436             3.237228            
     pair_coeff           4          4          lj/cut/coul/long      0.128691             3.423636            
     pair_coeff           4          5          lj/cut/coul/long      0.069088             3.242381            
     pair_coeff           5          5          lj/cut/coul/long      0.043581             2.989282            

     # Stretching interactions
     bond_coeff           1           381.791704           1.091739            
     bond_coeff           2           347.295036           1.103012            
     bond_coeff           3           301.982492           1.519854            
     bond_coeff           4           356.137922           1.414954            

     # Bending interactions
     angle_coeff          1           39.888602            108.785400          
     angle_coeff          2           47.628855            110.215887          
     angle_coeff          3           34.902189            108.313960          
     angle_coeff          4           40.748283            107.407037          
     angle_coeff          5           86.032344            118.079310          
     angle_coeff          6           44.557228            112.203026          
     angle_coeff          7           89.042962            111.233415          

     # Dihedral interactions
     dihedral_coeff       1          opls                  0.188825             0.238477             2.124398            -0.094126            
     dihedral_coeff       2          opls                  0.307144            -0.196419            -1.085547             0.183094            
     dihedral_coeff       3          opls                  0.112205            -1.055337            -0.126997            -0.784221            
     dihedral_coeff       4          opls                 -1.121849            -0.590672             0.156492             0.675645            
     dihedral_coeff       5          opls                 -0.163824            -0.323465             0.604244             0.563933            
