#Run DFT geometry optimization
! wB97X-D3 def2-TZVP TIGHTSCF Grid5 FinalGrid6 Opt CHELPG PAL4

%base "0_geo_opt"
%geom MaxIter 500
end

%geom
  Constraints
    { B 0 1 C }
  end
end


* xyz 0 1
  C                    3.010818             -1.180916            0.598394            
  O                    4.395163             -1.128031            0.874405            
  H                    4.772686             -0.379003            0.412591            
  H                    2.805944             -1.318984            -0.469447           
  H                    2.611142             -2.040284            1.135801            
  H                    2.484267             -0.284510            0.945561            
*
