     # Non-bonded interactions (pair-wise)
     pair_coeff           1          1          lj/cut/coul/long      0.024470             2.445635            
     pair_coeff           1          2          lj/cut/coul/long      0.007296             2.506407            
     pair_coeff           1          3          lj/cut/coul/long      0.040775             3.119560            
     pair_coeff           1          4          lj/cut/coul/long      0.037587             3.139691            
     pair_coeff           1          5          lj/cut/coul/long      0.021557             3.173508            
     pair_coeff           1          6          lj/cut/coul/long      0.004303             3.725996            
     pair_coeff           1          7          lj/cut/coul/long      0.072935             2.447421            
     pair_coeff           2          2          lj/cut/coul/long      0.002217             2.560598            
     pair_coeff           2          3          lj/cut/coul/long      0.013586             3.138425            
     pair_coeff           2          4          lj/cut/coul/long      0.012541             3.157970            
     pair_coeff           2          5          lj/cut/coul/long      0.007208             3.190849            
     pair_coeff           2          6          lj/cut/coul/long      0.001468             3.733834            
     pair_coeff           2          7          lj/cut/coul/long      0.021760             2.507987            
     pair_coeff           3          3          lj/cut/coul/long      0.165549             3.430313            
     pair_coeff           3          4          lj/cut/coul/long      0.155158             3.442922            
     pair_coeff           3          5          lj/cut/coul/long      0.091405             3.464492            
     pair_coeff           3          6          lj/cut/coul/long      0.024424             3.874602            
     pair_coeff           3          7          lj/cut/coul/long      0.121944             3.120089            
     pair_coeff           4          4          lj/cut/coul/long      0.145488             3.455305            
     pair_coeff           4          5          lj/cut/coul/long      0.085776             3.476497            
     pair_coeff           4          6          lj/cut/coul/long      0.023152             3.881493            
     pair_coeff           4          7          lj/cut/coul/long      0.112415             3.140204            
     pair_coeff           5          5          lj/cut/coul/long      0.050637             3.497063            
     pair_coeff           5          6          lj/cut/coul/long      0.013902             3.893432            
     pair_coeff           5          7          lj/cut/coul/long      0.064477             3.173995            
     pair_coeff           6          6          lj/cut/coul/long      0.004928             4.153944            
     pair_coeff           6          7          lj/cut/coul/long      0.012877             3.726214            
     pair_coeff           7          7          lj/cut/coul/long      0.217396             2.449200            

     # Stretching interactions
     bond_coeff           1           384.226258           1.090916            
     bond_coeff           2           352.582240           1.100892            
     bond_coeff           3           327.528067           1.511076            
     bond_coeff           4           308.435289           1.432440            
     bond_coeff           5           452.141950           1.325665            
     bond_coeff           6           907.136258           1.201548            

     # Bending interactions
     angle_coeff          1           40.182835            108.640655          
     angle_coeff          2           39.852429            110.357159          
     angle_coeff          3           42.903844            107.041954          
     angle_coeff          4           44.237128            110.840886          
     angle_coeff          5           57.874101            109.450535          
     angle_coeff          6           68.406919            113.470603          
     angle_coeff          7           71.162472            109.023197          
     angle_coeff          8           104.057014           108.439508          
     angle_coeff          9           83.443119            125.866718          

     # Dihedral interactions
     dihedral_coeff       1          opls                  0.217299             0.138478             0.223412             0.014708            
     dihedral_coeff       2          opls                 -0.381421            -0.322926             0.541712            -0.058854            
     dihedral_coeff       3          opls                  0.480009             0.200209             0.346931            -0.150501            
     dihedral_coeff       4          opls                 -0.592325             4.475033            -0.481619             0.148189            
     dihedral_coeff       5          opls                 -0.980496             4.468308            -0.692417            -0.020226            
     dihedral_coeff       6          opls                 -1.153605            -0.224521            -0.025396            -0.067037            
