#Run DFT dihedral scan
! wB97X-D3 def2-TZVP TIGHTSCF Grid5 FinalGrid6 Opt CHELPG PAL4

%base "scan-reverse_geo_opt"
%geom MaxIter 500
end


%geom Scan
    D 3 0 1 2 = 61.42710690470283, -288.57289309529716, 36
end
end

%geom
  Constraints
    { D 3 0 1 2 C }
  end
end


* xyz 0 1
  C                    3.011308             -1.180897            0.598492            
  O                    4.394673             -1.128050            0.874308            
  H                    4.772196             -0.379022            0.412493            
  H                    2.806434             -1.318965            -0.469350           
  H                    2.611632             -2.040265            1.135898            
  H                    2.484757             -0.284491            0.945659            
*
