#Run DFT-D3 single point of the dimer
! wB97X-D3 def2-TZVP TIGHTSCF  CHELPG PAL8

%base "137_charges"

%scf
MaxIter 1000
end
%output
  Print[ P_Mayer ] 1
  Print[ P_NatPop ] 1
  Print[ P_Hirshfeld ] 1
  Print[ P_Mulliken ] 1
  Print [ P_Loewdin ] 1
end

* xyz 0 1
  C                      -7.846786            9.980089             1.989364            
  O                      -8.974696            10.901015            1.902426            
  H                      -8.721651            11.620024            2.463232            
  H                      -7.869643            9.324516             1.111412            
  H                      -6.845733            10.507244            2.049421            
  H                      -7.885856            9.390858             3.007655            
*
