     # Non-bonded interactions (pair-wise)
     pair_coeff           1          1          lj/cut/coul/long      0.024470             2.445635            
     pair_coeff           1          2          lj/cut/coul/long      0.018597             2.443774            
     pair_coeff           1          3          lj/cut/coul/long      0.007296             2.506407            
     pair_coeff           1          4          lj/cut/coul/long      0.035117             3.332889            
     pair_coeff           1          5          lj/cut/coul/long      0.040775             3.119560            
     pair_coeff           1          6          lj/cut/coul/long      0.039399             3.057702            
     pair_coeff           1          7          lj/cut/coul/long      0.027370             3.017030            
     pair_coeff           1          8          lj/cut/coul/long      0.037587             3.139691            
     pair_coeff           1          9          lj/cut/coul/long      0.032340             2.752394            
     pair_coeff           1          10         lj/cut/coul/long      0.064639             2.583449            
     pair_coeff           2          2          lj/cut/coul/long      0.014134             2.441906            
     pair_coeff           2          3          lj/cut/coul/long      0.005542             2.504762            
     pair_coeff           2          4          lj/cut/coul/long      0.026586             3.332494            
     pair_coeff           2          5          lj/cut/coul/long      0.030880             3.119009            
     pair_coeff           2          6          lj/cut/coul/long      0.029842             3.057094            
     pair_coeff           2          7          lj/cut/coul/long      0.020733             3.016380            
     pair_coeff           2          8          lj/cut/coul/long      0.028465             3.139159            
     pair_coeff           2          9          lj/cut/coul/long      0.024521             2.751364            
     pair_coeff           2          10         lj/cut/coul/long      0.049063             2.582035            
     pair_coeff           3          3          lj/cut/coul/long      0.002217             2.560598            
     pair_coeff           3          4          lj/cut/coul/long      0.011839             3.346509            
     pair_coeff           3          5          lj/cut/coul/long      0.013586             3.138425            
     pair_coeff           3          6          lj/cut/coul/long      0.013069             3.078515            
     pair_coeff           3          7          lj/cut/coul/long      0.009048             3.039253            
     pair_coeff           3          8          lj/cut/coul/long      0.012541             3.157970            
     pair_coeff           3          9          lj/cut/coul/long      0.010363             2.787103            
     pair_coeff           3          10         lj/cut/coul/long      0.020042             2.630431            
     pair_coeff           4          4          lj/cut/coul/long      0.175077             3.690712            
     pair_coeff           4          5          lj/cut/coul/long      0.166226             3.572333            
     pair_coeff           4          6          lj/cut/coul/long      0.149960             3.541791            
     pair_coeff           4          7          lj/cut/coul/long      0.099305             3.522667            
     pair_coeff           4          8          lj/cut/coul/long      0.156528             3.582647            
     pair_coeff           4          9          lj/cut/coul/long      0.081220             3.416900            
     pair_coeff           4          10         lj/cut/coul/long      0.121504             3.365837            
     pair_coeff           5          5          lj/cut/coul/long      0.165549             3.430313            
     pair_coeff           5          6          lj/cut/coul/long      0.151557             3.392677            
     pair_coeff           5          7          lj/cut/coul/long      0.101348             3.368868            
     pair_coeff           5          8          lj/cut/coul/long      0.155158             3.442922            
     pair_coeff           5          9          lj/cut/coul/long      0.088336             3.233248            
     pair_coeff           5          10         lj/cut/coul/long      0.137251             3.164893            
     pair_coeff           6          6          lj/cut/coul/long      0.139401             3.352830            
     pair_coeff           6          7          lj/cut/coul/long      0.093516             3.327539            
     pair_coeff           6          8          lj/cut/coul/long      0.141833             3.405993            
     pair_coeff           6          9          lj/cut/coul/long      0.083300             3.182039            
     pair_coeff           6          10         lj/cut/coul/long      0.131230             3.107586            
     pair_coeff           7          7          lj/cut/coul/long      0.062870             3.301248            
     pair_coeff           7          8          lj/cut/coul/long      0.094751             3.382655            
     pair_coeff           7          9          lj/cut/coul/long      0.056854             3.148957            
     pair_coeff           7          10         lj/cut/coul/long      0.090462             3.070194            
     pair_coeff           8          8          lj/cut/coul/long      0.145488             3.455305            
     pair_coeff           8          9          lj/cut/coul/long      0.082030             3.250133            
     pair_coeff           8          10         lj/cut/coul/long      0.126919             3.183648            
     pair_coeff           9          9          lj/cut/coul/long      0.057596             2.947390            
     pair_coeff           9          10         lj/cut/coul/long      0.099608             2.834024            
     pair_coeff           10         10         lj/cut/coul/long      0.185310             2.692064            

     # Stretching interactions
     bond_coeff           1           377.846244           1.093155            
     bond_coeff           2           384.226258           1.090916            
     bond_coeff           3           371.907457           1.095040            
     bond_coeff           4           352.582240           1.100892            
     bond_coeff           5           323.882076           1.519063            
     bond_coeff           6           308.607436           1.508031            
     bond_coeff           7           327.528067           1.511076            
     bond_coeff           8           300.709160           1.432822            
     bond_coeff           9           408.129170           1.339193            
     bond_coeff           10          927.867686           1.201242            

     # Bending interactions
     angle_coeff          1           41.552646            107.471780          
     angle_coeff          2           43.197106            110.866577          
     angle_coeff          3           40.182835            108.640655          
     angle_coeff          4           39.852429            110.357159          
     angle_coeff          5           41.524841            105.853973          
     angle_coeff          6           45.524053            111.159200          
     angle_coeff          7           41.552128            106.881602          
     angle_coeff          8           42.903844            107.041954          
     angle_coeff          9           44.237128            110.840886          
     angle_coeff          10          57.874101            109.450535          
     angle_coeff          11          70.546717            111.278970          
     angle_coeff          12          55.321876            125.616730          
     angle_coeff          13          82.859113            114.305196          
     angle_coeff          14          54.458151            113.637495          
     angle_coeff          15          71.162472            109.023197          
     angle_coeff          16          104.695712           122.796564          

     # Dihedral interactions
     dihedral_coeff       1          opls                  0.939729            -0.227323             0.598613             0.189633            
     dihedral_coeff       2          opls                 -0.088503             0.125044            -0.867182             0.203474            
     dihedral_coeff       3          opls                  0.217299             0.138478             0.223412             0.014708            
     dihedral_coeff       4          opls                 -0.354298            -0.327676             0.543085            -0.058369            
     dihedral_coeff       5          opls                 -0.156627            -0.037106             0.229698             0.130177            
     dihedral_coeff       6          opls                  0.001339            -0.119156            -0.009348             0.096622            
     dihedral_coeff       7          opls                  0.724227            -0.110338             0.061298            -0.095325            
     dihedral_coeff       8          opls                  1.370091             4.814223            -0.919633            -0.408414            
     dihedral_coeff       9          opls                 -2.094251             6.470907            -1.521677             0.573943            
     dihedral_coeff       10         opls                  0.122685            -0.050035            -0.077400             0.166333            
     dihedral_coeff       11         opls                 -0.116744             0.068306             0.186010             0.215553            
     dihedral_coeff       12         opls                 -1.321023             0.076120             0.290540            -0.101996            
