#Run DFT-D3 single point of the dimer
! wB97X-D3 def2-TZVP TIGHTSCF CHELPG PMODEL PAL8

%base "6-3_DFT_AB"

%scf
MaxIter 1000
end

* xyz 0 1
  C                      3.221137             7.634066             8.195643            
  O                      3.982834             7.118366             9.205529            
  H                      4.894659             7.152275             8.965242            
  H                      3.626544             8.552249             7.826368            
  H                      3.290289             6.915142             7.335799            
  H                      2.201108             7.700457             8.443460            
  C                      7.754791             6.367372             9.485045            
  O                      7.049576             7.425827             8.807849            
  H                      7.715062             8.046957             8.548108            
  H                      8.470335             6.703602             10.245140           
  H                      7.075610             5.722960             9.922584            
  H                      8.330576             5.765274             8.727619            
*

#Run DFT-D3 single point of the molecule with dimer basis set
$new_job
%base "6-3_DFT_A"
! wB97X-D3 def2-TZVP TIGHTSCF CHELPG PMODEL

%scf
MaxIter 1000
end

* xyz 0 1
  C                      3.221137             7.634066             8.195643            
  O                      3.982834             7.118366             9.205529            
  H                      4.894659             7.152275             8.965242            
  H                      3.626544             8.552249             7.826368            
  H                      3.290289             6.915142             7.335799            
  H                      2.201108             7.700457             8.443460            
  C                    : 7.754791             6.367372             9.485045            
  O                    : 7.049576             7.425827             8.807849            
  H                    : 7.715062             8.046957             8.548108            
  H                    : 8.470335             6.703602             10.245140           
  H                    : 7.075610             5.722960             9.922584            
  H                    : 8.330576             5.765274             8.727619            
*

#Run DFT-D3 single point of the particle with dimer basis set
$new_job
%base "6-3_DFT_B"
! wB97X-D3 def2-TZVP TIGHTSCF CHELPG PMODEL

%scf
MaxIter 1000
end

* xyz 0 1
  C                    : 3.221137             7.634066             8.195643            
  O                    : 3.982834             7.118366             9.205529            
  H                    : 4.894659             7.152275             8.965242            
  H                    : 3.626544             8.552249             7.826368            
  H                    : 3.290289             6.915142             7.335799            
  H                    : 2.201108             7.700457             8.443460            
  C                      7.754791             6.367372             9.485045            
  O                      7.049576             7.425827             8.807849            
  H                      7.715062             8.046957             8.548108            
  H                      8.470335             6.703602             10.245140           
  H                      7.075610             5.722960             9.922584            
  H                      8.330576             5.765274             8.727619            
*
