#Run DFT-D3 single point of the dimer
! wB97X-D3 def2-TZVP TIGHTSCF  CHELPG PAL8

%base "140_charges"

%scf
MaxIter 1000
end
%output
  Print[ P_Mayer ] 1
  Print[ P_NatPop ] 1
  Print[ P_Hirshfeld ] 1
  Print[ P_Mulliken ] 1
  Print [ P_Loewdin ] 1
end

* xyz 0 1
  C                      -3.711648            7.802668             -6.226796           
  O                      -2.773601            6.938961             -5.606967           
  H                      -2.109174            6.807230             -6.248859           
  H                      -4.285816            7.265234             -7.050281           
  H                      -4.571025            8.053848             -5.516668           
  H                      -3.234337            8.690665             -6.687964           
*
