     # Non-bonded interactions (pair-wise)
     pair_coeff           1          1          lj/cut/coul/long      0.003575             2.478154            
     pair_coeff           1          2          lj/cut/coul/long      0.003140             2.484338            
     pair_coeff           1          3          lj/cut/coul/long      0.009346             2.462163            
     pair_coeff           1          4          lj/cut/coul/long      0.021678             3.262640            
     pair_coeff           1          5          lj/cut/coul/long      0.021401             3.261277            
     pair_coeff           1          6          lj/cut/coul/long      0.015605             3.159571            
     pair_coeff           1          7          lj/cut/coul/long      0.015197             3.110941            
     pair_coeff           1          8          lj/cut/coul/long      0.016178             3.165053            
     pair_coeff           2          2          lj/cut/coul/long      0.002759             2.490446            
     pair_coeff           2          3          lj/cut/coul/long      0.008204             2.468549            
     pair_coeff           2          4          lj/cut/coul/long      0.019273             3.264211            
     pair_coeff           2          5          lj/cut/coul/long      0.019026             3.262852            
     pair_coeff           2          6          lj/cut/coul/long      0.013865             3.161416            
     pair_coeff           2          7          lj/cut/coul/long      0.013498             3.112934            
     pair_coeff           2          8          lj/cut/coul/long      0.014375             3.166881            
     pair_coeff           3          3          lj/cut/coul/long      0.024470             2.445635            
     pair_coeff           3          4          lj/cut/coul/long      0.054914             3.258650            
     pair_coeff           3          5          lj/cut/coul/long      0.054212             3.257278            
     pair_coeff           3          6          lj/cut/coul/long      0.039591             3.154883            
     pair_coeff           3          7          lj/cut/coul/long      0.038591             3.105873            
     pair_coeff           3          8          lj/cut/coul/long      0.041041             3.160405            
     pair_coeff           4          4          lj/cut/coul/long      0.378637             3.601095            
     pair_coeff           4          5          lj/cut/coul/long      0.373370             3.600263            
     pair_coeff           4          6          lj/cut/coul/long      0.248930             3.540441            
     pair_coeff           4          7          lj/cut/coul/long      0.231268             3.513442            
     pair_coeff           4          8          lj/cut/coul/long      0.259397             3.543550            
     pair_coeff           5          5          lj/cut/coul/long      0.368176             3.599431            
     pair_coeff           5          6          lj/cut/coul/long      0.245504             3.539536            
     pair_coeff           5          7          lj/cut/coul/long      0.228101             3.512502            
     pair_coeff           5          8          lj/cut/coul/long      0.255824             3.542649            
     pair_coeff           6          6          lj/cut/coul/long      0.165562             3.474098            
     pair_coeff           6          7          lj/cut/coul/long      0.154689             3.444351            
     pair_coeff           6          8          lj/cut/coul/long      0.172415             3.477515            
     pair_coeff           7          7          lj/cut/coul/long      0.144936             3.413262            
     pair_coeff           7          8          lj/cut/coul/long      0.161041             3.447918            
     pair_coeff           8          8          lj/cut/coul/long      0.179557             3.480915            

     # Stretching interactions
     bond_coeff           1           385.838334           1.089382            
     bond_coeff           2           387.142194           1.088696            
     bond_coeff           3           377.262710           1.093655            
     bond_coeff           4           202.375040           1.934710            
     bond_coeff           5           182.561449           1.952415            
     bond_coeff           6           308.957911           1.517306            
     bond_coeff           7           303.380037           1.512930            

     # Bending interactions
     angle_coeff          1           39.362996            109.274157          
     angle_coeff          2           45.274564            107.068171          
     angle_coeff          3           48.447516            108.439668          
     angle_coeff          4           47.960323            104.485654          
     angle_coeff          5           44.137425            110.801788          
     angle_coeff          6           46.083369            110.074947          
     angle_coeff          7           40.075207            108.474071          
     angle_coeff          8           46.590106            110.512150          
     angle_coeff          9           70.394719            114.169346          
     angle_coeff          10          73.614466            109.821989          
     angle_coeff          11          74.465560            111.191149          
     angle_coeff          12          58.377647            110.336001          

     # Dihedral interactions
     dihedral_coeff       1          opls                  0.562125             0.427225             0.715285            -0.192310            
     dihedral_coeff       2          opls                 -1.122910            -0.100409             0.222974            -0.475936            
     dihedral_coeff       3          opls                  0.377482            -0.038850            -0.299955             0.297712            
     dihedral_coeff       4          opls                 -0.176846             0.016609             0.844235            -0.094342            
     dihedral_coeff       5          opls                 -1.315441             0.657002             1.856847            -0.049498            
     dihedral_coeff       6          opls                  0.345100            -0.076008             0.364382            -0.082874            
     dihedral_coeff       7          opls                 -0.306476            -0.078799            -0.008495            -0.055229            
     dihedral_coeff       8          opls                  1.827815            -1.730283             1.281686            -0.035024            
     dihedral_coeff       9          opls                 -0.919525            -0.352325             0.899113             0.306351            
