#Run DFT-D3 single point of the dimer
! wB97X-D3 def2-TZVP TIGHTSCF  CHELPG PAL8

%base "136_charges"

%scf
MaxIter 1000
end
%output
  Print[ P_Mayer ] 1
  Print[ P_NatPop ] 1
  Print[ P_Hirshfeld ] 1
  Print[ P_Mulliken ] 1
  Print [ P_Loewdin ] 1
end

* xyz 0 1
  C                      11.570943            1.338819             -9.715413           
  O                      11.571002            2.557728             -10.509987          
  H                      12.360266            2.550844             -11.080997          
  H                      10.635606            1.300332             -9.064699           
  H                      11.598324            0.446032             -10.312189          
  H                      12.452207            1.194146             -9.113946           
*
