#Run DFT-D3 single point of the dimer
! wB97X-D3 def2-TZVP TIGHTSCF CHELPG PMODEL PAL8

%base "10-4_DFT_AB"

%scf
MaxIter 1000
end

* xyz 0 1
  C                      -6.423069            5.566092             9.013381            
  O                      -6.490406            6.939785             8.703720            
  H                      -5.816488            7.100692             8.090013            
  H                      -7.316964            5.205827             9.520099            
  H                      -6.371598            4.942767             8.107187            
  H                      -5.565183            5.306817             9.669080            
  C                      -6.367076            7.219084             4.384384            
  O                      -6.531146            5.884104             4.062090            
  H                      -7.046276            5.471730             4.776969            
  H                      -5.481634            7.619671             3.840341            
  H                      -7.226270            7.889155             4.174136            
  H                      -6.196221            7.273434             5.470295            
*

#Run DFT-D3 single point of the molecule with dimer basis set
$new_job
%base "10-4_DFT_A"
! wB97X-D3 def2-TZVP TIGHTSCF CHELPG PMODEL

%scf
MaxIter 1000
end

* xyz 0 1
  C                      -6.423069            5.566092             9.013381            
  O                      -6.490406            6.939785             8.703720            
  H                      -5.816488            7.100692             8.090013            
  H                      -7.316964            5.205827             9.520099            
  H                      -6.371598            4.942767             8.107187            
  H                      -5.565183            5.306817             9.669080            
  C                    : -6.367076            7.219084             4.384384            
  O                    : -6.531146            5.884104             4.062090            
  H                    : -7.046276            5.471730             4.776969            
  H                    : -5.481634            7.619671             3.840341            
  H                    : -7.226270            7.889155             4.174136            
  H                    : -6.196221            7.273434             5.470295            
*

#Run DFT-D3 single point of the particle with dimer basis set
$new_job
%base "10-4_DFT_B"
! wB97X-D3 def2-TZVP TIGHTSCF CHELPG PMODEL

%scf
MaxIter 1000
end

* xyz 0 1
  C                    : -6.423069            5.566092             9.013381            
  O                    : -6.490406            6.939785             8.703720            
  H                    : -5.816488            7.100692             8.090013            
  H                    : -7.316964            5.205827             9.520099            
  H                    : -6.371598            4.942767             8.107187            
  H                    : -5.565183            5.306817             9.669080            
  C                      -6.367076            7.219084             4.384384            
  O                      -6.531146            5.884104             4.062090            
  H                      -7.046276            5.471730             4.776969            
  H                      -5.481634            7.619671             3.840341            
  H                      -7.226270            7.889155             4.174136            
  H                      -6.196221            7.273434             5.470295            
*
