     # Non-bonded interactions (pair-wise)
     pair_coeff           1          1          lj/cut/coul/long      0.006523             2.470287            
     pair_coeff           1          2          lj/cut/coul/long      0.003781             2.517466            
     pair_coeff           1          3          lj/cut/coul/long      0.019182             3.169727            
     pair_coeff           1          4          lj/cut/coul/long      0.025774             3.072968            
     pair_coeff           1          5          lj/cut/coul/long      0.022997             2.729706            
     pair_coeff           1          6          lj/cut/coul/long      0.021339             2.772322            
     pair_coeff           2          2          lj/cut/coul/long      0.002217             2.560598            
     pair_coeff           2          3          lj/cut/coul/long      0.012128             3.183797            
     pair_coeff           2          4          lj/cut/coul/long      0.016209             3.089361            
     pair_coeff           2          5          lj/cut/coul/long      0.014007             2.758949            
     pair_coeff           2          6          lj/cut/coul/long      0.013069             2.799449            
     pair_coeff           3          3          lj/cut/coul/long      0.141759             3.488136            
     pair_coeff           3          4          lj/cut/coul/long      0.174860             3.430222            
     pair_coeff           3          5          lj/cut/coul/long      0.103996             3.260155            
     pair_coeff           3          6          lj/cut/coul/long      0.102461             3.278141            
     pair_coeff           4          4          lj/cut/coul/long      0.218126             3.366963            
     pair_coeff           4          5          lj/cut/coul/long      0.135438             3.177144            
     pair_coeff           4          6          lj/cut/coul/long      0.132717             3.197559            
     pair_coeff           5          5          lj/cut/coul/long      0.101743             2.904335            
     pair_coeff           5          6          lj/cut/coul/long      0.097086             2.935962            
     pair_coeff           6          6          lj/cut/coul/long      0.093011             2.965972            

     # Stretching interactions
     bond_coeff           1           360.575632           1.098824            
     bond_coeff           2           347.949566           1.102812            
     bond_coeff           3           329.255750           1.513210            
     bond_coeff           4           375.832143           1.404365            
     bond_coeff           5           378.228948           1.404240            
     bond_coeff           6           375.134169           1.399887            

     # Bending interactions
     angle_coeff          1           40.646717            108.276775          
     angle_coeff          2           59.090508            107.953013          
     angle_coeff          3           43.178823            107.380829          
     angle_coeff          4           41.649082            109.790118          
     angle_coeff          5           54.564850            110.406173          
     angle_coeff          6           54.921880            110.629456          
     angle_coeff          7           64.723628            108.693498          
     angle_coeff          8           64.723628            108.693498          
     angle_coeff          9           59.287916            111.478503          
     angle_coeff          10          59.141375            111.645729          

     # Dihedral interactions
     dihedral_coeff       1          opls                  0.104577            -0.258821             0.787646            -0.250633            
     dihedral_coeff       2          opls                  0.625380            -0.265005             0.281580             0.157613            
     dihedral_coeff       3          opls                 -1.381506             0.616525             0.482311            -0.103647            
     dihedral_coeff       4          opls                 -1.381521             0.616438             0.482356            -0.103471            
     dihedral_coeff       5          opls                 -0.591069             0.092505             0.541711             0.116040            
     dihedral_coeff       6          opls                 -1.138933             0.093143             0.527796             0.144171            
     dihedral_coeff       7          opls                  0.389172            -0.229316             1.064387            -0.028794            
     dihedral_coeff       8          opls                  1.066918            -0.397363             0.963536            -0.011887            
     dihedral_coeff       9          opls                  2.480150            -2.008412             0.696553            -0.583664            
