     # Non-bonded interactions (pair-wise)
     pair_coeff           1          1          lj/cut/coul/long      0.280833             3.414637            
     pair_coeff           1          2          lj/cut/coul/long      0.022870             3.111884            
     pair_coeff           1          3          lj/cut/coul/long      0.017867             3.126219            
     pair_coeff           1          4          lj/cut/coul/long      0.004647             3.052154            
     pair_coeff           1          5          lj/cut/coul/long      0.220548             3.460262            
     pair_coeff           1          6          lj/cut/coul/long      0.220290             3.418899            
     pair_coeff           1          7          lj/cut/coul/long      0.198536             3.219135            
     pair_coeff           2          2          lj/cut/coul/long      0.004193             2.477211            
     pair_coeff           2          3          lj/cut/coul/long      0.003034             2.520627            
     pair_coeff           2          4          lj/cut/coul/long      0.001334             2.254748            
     pair_coeff           2          5          lj/cut/coul/long      0.016991             3.182768            
     pair_coeff           2          6          lj/cut/coul/long      0.017841             3.118648            
     pair_coeff           2          7          lj/cut/coul/long      0.023652             2.753498            
     pair_coeff           3          3          lj/cut/coul/long      0.002217             2.560598            
     pair_coeff           3          4          lj/cut/coul/long      0.000898             2.322126            
     pair_coeff           3          5          lj/cut/coul/long      0.013320             3.195595            
     pair_coeff           3          6          lj/cut/coul/long      0.013943             3.132831            
     pair_coeff           3          7          lj/cut/coul/long      0.017948             2.779607            
     pair_coeff           4          4          lj/cut/coul/long      0.001000             1.779072            
     pair_coeff           4          5          lj/cut/coul/long      0.003400             3.129736            
     pair_coeff           4          6          lj/cut/coul/long      0.003619             3.059602            
     pair_coeff           4          7          lj/cut/coul/long      0.005547             2.636846            
     pair_coeff           5          5          lj/cut/coul/long      0.174225             3.503063            
     pair_coeff           5          6          lj/cut/coul/long      0.173100             3.464251            
     pair_coeff           5          7          lj/cut/coul/long      0.151011             3.279576            
     pair_coeff           6          6          lj/cut/coul/long      0.172809             3.423135            
     pair_coeff           6          7          lj/cut/coul/long      0.155243             3.224851            
     pair_coeff           7          7          lj/cut/coul/long      0.171189             2.936022            

     # Stretching interactions
     bond_coeff           1           237.497106           1.781896            
     bond_coeff           2           391.347338           1.087527            
     bond_coeff           3           366.341726           1.096237            
     bond_coeff           4           611.563703           0.957250            
     bond_coeff           5           324.753752           1.512468            
     bond_coeff           6           364.518560           1.413420            

     # Bending interactions
     angle_coeff          1           51.232254            107.869842          
     angle_coeff          2           66.126146            110.895956          
     angle_coeff          3           41.006725            109.351510          
     angle_coeff          4           38.376150            110.280344          
     angle_coeff          5           41.490274            108.239622          
     angle_coeff          6           44.308106            109.677039          
     angle_coeff          7           58.235586            111.598874          
     angle_coeff          8           45.141793            107.417800          
     angle_coeff          9           70.921250            105.724106          

     # Dihedral interactions
     dihedral_coeff       1          opls                 -1.457416             0.307560             0.608479             0.080768            
     dihedral_coeff       2          opls                  2.607402            -1.728587             0.800300            -0.416252            
     dihedral_coeff       3          opls                  0.629339            -0.056688             0.321088             0.125644            
     dihedral_coeff       4          opls                 -1.422014             0.344674             0.512311            -0.336869            
     dihedral_coeff       5          opls                  0.430588             0.220658             0.362642            -0.064400            
     dihedral_coeff       6          opls                 -0.972571            -0.581554             0.336687            -0.142299            
