     # Non-bonded interactions (pair-wise)
     pair_coeff           1          1          lj/cut/coul/long      0.001819             2.775138            
     pair_coeff           1          2          lj/cut/coul/long      0.001229             2.620273            
     pair_coeff           1          3          lj/cut/coul/long      0.018419             3.029635            
     pair_coeff           1          4          lj/cut/coul/long      0.016256             3.117850            
     pair_coeff           1          5          lj/cut/coul/long      0.020832             2.643862            
     pair_coeff           2          2          lj/cut/coul/long      0.001000             2.398789            
     pair_coeff           2          3          lj/cut/coul/long      0.010654             2.935722            
     pair_coeff           2          4          lj/cut/coul/long      0.009103             3.037546            
     pair_coeff           2          5          lj/cut/coul/long      0.016348             2.434921            
     pair_coeff           3          3          lj/cut/coul/long      0.224048             3.207926            
     pair_coeff           3          4          lj/cut/coul/long      0.207253             3.275554            
     pair_coeff           3          5          lj/cut/coul/long      0.185347             2.949232            
     pair_coeff           4          4          lj/cut/coul/long      0.194408             3.336847            
     pair_coeff           4          5          lj/cut/coul/long      0.159166             3.048962            
     pair_coeff           5          5          lj/cut/coul/long      0.269237             2.468555            

     # Stretching interactions
     bond_coeff           1           349.325249           1.105553            
     bond_coeff           2           541.458713           1.005127            
     bond_coeff           3           261.959838           1.353372            
     bond_coeff           4           927.593803           1.205605            

     # Bending interactions
     angle_coeff          1           43.469665            112.455736          
     angle_coeff          2           42.715026            122.727416          
     angle_coeff          3           28.706551            119.396884          
     angle_coeff          4           33.730293            119.195869          
     angle_coeff          5           83.646829            124.797458          

     # Dihedral interactions
     dihedral_coeff       1          opls                 -0.553207             4.451881             2.334224            -2.300007            
     dihedral_coeff       2          opls                 -0.629249             3.813570             1.046607             0.979502            
