     # Non-bonded interactions (pair-wise)
     pair_coeff           1          1          lj/cut/coul/long      0.001613             2.552375            
     pair_coeff           1          2          lj/cut/coul/long      0.006231             2.501848            
     pair_coeff           1          3          lj/cut/coul/long      0.015884             3.423638            
     pair_coeff           1          4          lj/cut/coul/long      0.013222             3.158508            
     pair_coeff           1          5          lj/cut/coul/long      0.010347             3.144106            
     pair_coeff           2          2          lj/cut/coul/long      0.024470             2.445635            
     pair_coeff           2          3          lj/cut/coul/long      0.055502             3.412472            
     pair_coeff           2          4          lj/cut/coul/long      0.046777             3.141715            
     pair_coeff           2          5          lj/cut/coul/long      0.036639             3.126917            
     pair_coeff           3          3          lj/cut/coul/long      0.498287             3.785846            
     pair_coeff           3          4          lj/cut/coul/long      0.323603             3.640201            
     pair_coeff           3          5          lj/cut/coul/long      0.249271             3.633164            
     pair_coeff           4          4          lj/cut/coul/long      0.226082             3.457811            
     pair_coeff           4          5          lj/cut/coul/long      0.174888             3.448696            
     pair_coeff           5          5          lj/cut/coul/long      0.135321             3.439459            

     # Stretching interactions
     bond_coeff           1           385.549755           1.089098            
     bond_coeff           2           382.263360           1.091631            
     bond_coeff           3           141.038712           2.162589            
     bond_coeff           4           310.099356           1.515758            

     # Bending interactions
     angle_coeff          1           43.019061            102.761813          
     angle_coeff          2           44.030810            110.442991          
     angle_coeff          3           40.076259            108.406480          
     angle_coeff          4           46.055195            108.827842          
     angle_coeff          5           64.890978            109.889584          
     angle_coeff          6           53.606160            112.748771          

     # Dihedral interactions
     dihedral_coeff       1          opls                 -0.182150            -0.027699             0.519291            -0.107089            
     dihedral_coeff       2          opls                  0.801414            -0.206762             0.611292            -0.151635            
     dihedral_coeff       3          opls                 -0.714886             0.188129             0.179023            -0.150423            
