#Run DFT geometry optimization
! wB97X-D3 def2-TZVP TIGHTSCF Grid5 FinalGrid6 Opt CHELPG PAL4

%base "8_geo_opt"
%geom MaxIter 500
end

%geom
  Constraints
    { B 2 1 C }
  end
end


* xyz 0 1
  C                    3.011426             -1.180662            0.598347            
  O                    4.394791             -1.127815            0.874163            
  H                    4.772078             -0.379257            0.412638            
  H                    2.806553             -1.318730            -0.469494           
  H                    2.611750             -2.040030            1.135754            
  H                    2.484875             -0.284256            0.945514            
*
