#Run DFT-D3 single point of the dimer
! wB97X-D3 def2-TZVP TIGHTSCF CHELPG PMODEL PAL8

%base "20-92_DFT_AB"

%scf
MaxIter 1000
end

* xyz 0 1
  C                      -5.619514            -0.230082            9.710258            
  O                      -5.919557            0.391140             10.949691           
  H                      -5.148180            1.017697             11.036180           
  H                      -6.402927            -0.922974            9.360529            
  H                      -5.635728            0.617874             8.986753            
  H                      -4.641547            -0.829193            9.755749            
  C                      -4.753666            2.997404             7.359859            
  O                      -4.275709            4.107133             6.683067            
  H                      -3.688542            3.841056             6.004916            
  H                      -3.868321            2.308237             7.551418            
  H                      -4.909387            3.226133             8.429224            
  H                      -5.680894            2.545239             6.906451            
*

#Run DFT-D3 single point of the molecule with dimer basis set
$new_job
%base "20-92_DFT_A"
! wB97X-D3 def2-TZVP TIGHTSCF CHELPG PMODEL

%scf
MaxIter 1000
end

* xyz 0 1
  C                      -5.619514            -0.230082            9.710258            
  O                      -5.919557            0.391140             10.949691           
  H                      -5.148180            1.017697             11.036180           
  H                      -6.402927            -0.922974            9.360529            
  H                      -5.635728            0.617874             8.986753            
  H                      -4.641547            -0.829193            9.755749            
  C                    : -4.753666            2.997404             7.359859            
  O                    : -4.275709            4.107133             6.683067            
  H                    : -3.688542            3.841056             6.004916            
  H                    : -3.868321            2.308237             7.551418            
  H                    : -4.909387            3.226133             8.429224            
  H                    : -5.680894            2.545239             6.906451            
*

#Run DFT-D3 single point of the particle with dimer basis set
$new_job
%base "20-92_DFT_B"
! wB97X-D3 def2-TZVP TIGHTSCF CHELPG PMODEL

%scf
MaxIter 1000
end

* xyz 0 1
  C                    : -5.619514            -0.230082            9.710258            
  O                    : -5.919557            0.391140             10.949691           
  H                    : -5.148180            1.017697             11.036180           
  H                    : -6.402927            -0.922974            9.360529            
  H                    : -5.635728            0.617874             8.986753            
  H                    : -4.641547            -0.829193            9.755749            
  C                      -4.753666            2.997404             7.359859            
  O                      -4.275709            4.107133             6.683067            
  H                      -3.688542            3.841056             6.004916            
  H                      -3.868321            2.308237             7.551418            
  H                      -4.909387            3.226133             8.429224            
  H                      -5.680894            2.545239             6.906451            
*
