#Run DFT geometry optimization
! wB97X-D3 def2-TZVP TIGHTSCF Grid5 FinalGrid6 Opt CHELPG PAL4

%base "6_geo_opt"
%geom MaxIter 500
end

%geom
  Constraints
    { B 5 0 C }
  end
end


* xyz 0 1
  C                    3.011260             -1.180815            0.598523            
  O                    4.394625             -1.127968            0.874339            
  H                    4.772148             -0.378940            0.412525            
  H                    2.806386             -1.318883            -0.469318           
  H                    2.611584             -2.040183            1.135930            
  H                    2.484805             -0.284573            0.945627            
*
