#Run DFT geometry optimization
! wB97X-D3 def2-TZVP TIGHTSCF Grid5 FinalGrid6 Opt CHELPG PAL4

%base "3_geo_opt"
%geom MaxIter 500
end

%geom
  Constraints
    { B 5 0 C }
  end
end


* xyz 0 1
  C                    3.011404             -1.181061            0.598428            
  O                    4.394769             -1.128214            0.874244            
  H                    4.772292             -0.379185            0.412430            
  H                    2.806530             -1.319128            -0.469413           
  H                    2.611728             -2.040429            1.135835            
  H                    2.484661             -0.284328            0.945722            
*
