#Run DFT-D3 single point of the dimer
! wB97X-D3 def2-TZVP TIGHTSCF CHELPG PMODEL PAL8

%base "9-107_DFT_AB"

%scf
MaxIter 1000
end

* xyz 0 1
  C                      6.482871             0.175619             -3.124092           
  O                      5.876064             1.479061             -3.086430           
  H                      5.127288             1.460981             -2.485195           
  H                      6.305677             -0.243266            -2.102666           
  H                      5.921835             -0.472918            -3.836024           
  H                      7.590044             0.153542             -3.268757           
  C                      2.403711             2.233500             -2.240277           
  O                      2.961890             1.900304             -3.510987           
  H                      2.285466             2.224040             -4.178838           
  H                      3.212827             2.323104             -1.545528           
  H                      1.740199             3.100437             -2.266122           
  H                      1.691648             1.586078             -1.791668           
*

#Run DFT-D3 single point of the molecule with dimer basis set
$new_job
%base "9-107_DFT_A"
! wB97X-D3 def2-TZVP TIGHTSCF CHELPG PMODEL

%scf
MaxIter 1000
end

* xyz 0 1
  C                      6.482871             0.175619             -3.124092           
  O                      5.876064             1.479061             -3.086430           
  H                      5.127288             1.460981             -2.485195           
  H                      6.305677             -0.243266            -2.102666           
  H                      5.921835             -0.472918            -3.836024           
  H                      7.590044             0.153542             -3.268757           
  C                    : 2.403711             2.233500             -2.240277           
  O                    : 2.961890             1.900304             -3.510987           
  H                    : 2.285466             2.224040             -4.178838           
  H                    : 3.212827             2.323104             -1.545528           
  H                    : 1.740199             3.100437             -2.266122           
  H                    : 1.691648             1.586078             -1.791668           
*

#Run DFT-D3 single point of the particle with dimer basis set
$new_job
%base "9-107_DFT_B"
! wB97X-D3 def2-TZVP TIGHTSCF CHELPG PMODEL

%scf
MaxIter 1000
end

* xyz 0 1
  C                    : 6.482871             0.175619             -3.124092           
  O                    : 5.876064             1.479061             -3.086430           
  H                    : 5.127288             1.460981             -2.485195           
  H                    : 6.305677             -0.243266            -2.102666           
  H                    : 5.921835             -0.472918            -3.836024           
  H                    : 7.590044             0.153542             -3.268757           
  C                      2.403711             2.233500             -2.240277           
  O                      2.961890             1.900304             -3.510987           
  H                      2.285466             2.224040             -4.178838           
  H                      3.212827             2.323104             -1.545528           
  H                      1.740199             3.100437             -2.266122           
  H                      1.691648             1.586078             -1.791668           
*
