     # Non-bonded interactions (pair-wise)
     pair_coeff           1          1          lj/cut/coul/long      0.024470             2.445635            
     pair_coeff           1          2          lj/cut/coul/long      0.013733             2.436158            
     pair_coeff           1          3          lj/cut/coul/long      0.036779             3.096355            
     pair_coeff           1          4          lj/cut/coul/long      0.038138             3.081187            
     pair_coeff           1          5          lj/cut/coul/long      0.023285             3.057383            
     pair_coeff           1          6          lj/cut/coul/long      0.062239             2.593225            
     pair_coeff           2          2          lj/cut/coul/long      0.007711             2.426493            
     pair_coeff           2          3          lj/cut/coul/long      0.020279             3.093463            
     pair_coeff           2          4          lj/cut/coul/long      0.021031             3.078223            
     pair_coeff           2          5          lj/cut/coul/long      0.012844             3.054302            
     pair_coeff           2          6          lj/cut/coul/long      0.034686             2.586176            
     pair_coeff           3          3          lj/cut/coul/long      0.129571             3.401374            
     pair_coeff           3          4          lj/cut/coul/long      0.132649             3.391942            
     pair_coeff           3          5          lj/cut/coul/long      0.079333             3.377344            
     pair_coeff           3          6          lj/cut/coul/long      0.120622             3.147027            
     pair_coeff           4          4          lj/cut/coul/long      0.135838             3.382377            
     pair_coeff           4          5          lj/cut/coul/long      0.081276             3.367569            
     pair_coeff           4          6          lj/cut/coul/long      0.124733             3.133057            
     pair_coeff           5          5          lj/cut/coul/long      0.048665             3.352428            
     pair_coeff           5          6          lj/cut/coul/long      0.075811             3.111201            
     pair_coeff           6          6          lj/cut/coul/long      0.173555             2.707894            

     # Stretching interactions
     bond_coeff           1           379.582319           1.092452            
     bond_coeff           2           365.540288           1.098356            
     bond_coeff           3           296.188351           1.530459            
     bond_coeff           4           249.338054           1.513759            
     bond_coeff           5           931.096625           1.206483            

     # Bending interactions
     angle_coeff          1           41.062153            107.765742          
     angle_coeff          2           43.028157            110.305629          
     angle_coeff          3           62.782721            107.648142          
     angle_coeff          4           53.120116            104.946278          
     angle_coeff          5           122.747997           118.372054          
     angle_coeff          6           128.396025           120.811225          
     angle_coeff          7           81.647239            111.877145          
     angle_coeff          8           48.047296            109.258019          

     # Dihedral interactions
     dihedral_coeff       1          opls                  0.170825             0.068932             0.161571            -0.122015            
     dihedral_coeff       2          opls                 -0.223425            -0.476048             0.755088             0.150841            
     dihedral_coeff       3          opls                 -0.859758             1.137496             0.144471            -0.554317            
     dihedral_coeff       4          opls                 -1.841571             2.653722            -3.035526             0.295797            
     dihedral_coeff       5          opls                 -2.349790            -2.273259             1.937757             2.141984            
     dihedral_coeff       6          opls                  0.145222            -0.968171             0.745242             1.293028            
     dihedral_coeff       7          opls                  1.169924             1.887726            -1.515936             1.197968            
