#Run DFT-D3 single point of the dimer
! wB97X-D3 def2-TZVP TIGHTSCF  CHELPG PAL8

%base "17_charges"

%scf
MaxIter 1000
end
%output
  Print[ P_Mayer ] 1
  Print[ P_NatPop ] 1
  Print[ P_Hirshfeld ] 1
  Print[ P_Mulliken ] 1
  Print [ P_Loewdin ] 1
end

* xyz 0 1
  C                      -1.804335            6.645059             1.523067            
  O                      -2.370496            5.559634             2.191601            
  H                      -3.314504            5.702586             2.088402            
  H                      -2.219584            6.543093             0.540295            
  H                      -2.086437            7.610948             2.029899            
  H                      -0.770762            6.590160             1.422351            
*
