     # Non-bonded interactions (pair-wise)
     pair_coeff           1          1          lj/cut/coul/long      0.018166             2.436201            
     pair_coeff           1          2          lj/cut/coul/long      0.038318             2.939225            
     pair_coeff           1          3          lj/cut/coul/long      0.040808             2.684119            
     pair_coeff           2          2          lj/cut/coul/long      0.148753             3.203325            
     pair_coeff           2          3          lj/cut/coul/long      0.122610             3.052921            
     pair_coeff           3          3          lj/cut/coul/long      0.113792             2.852608            

     # Stretching interactions
     bond_coeff           1           343.702458           1.107071            
     bond_coeff           2           1004.694973          1.195718            

     # Bending interactions
     angle_coeff          1           28.137259            116.080400          
     angle_coeff          2           59.223622            121.946697          

     # Dihedral interactions
