#Run DFT geometry optimization
! wB97X-D3 def2-TZVP TIGHTSCF Grid5 FinalGrid6 Opt CHELPG PAL4

%base "1_geo_opt"
%geom MaxIter 500
end

%geom
  Constraints
    { B 5 0 C }
  end
end


* xyz 0 1
  C                    3.011500             -1.181224            0.598365            
  O                    4.394865             -1.128377            0.874181            
  H                    4.772388             -0.379349            0.412366            
  H                    2.806626             -1.319292            -0.469476           
  H                    2.611824             -2.040592            1.135772            
  H                    2.484565             -0.284164            0.945786            
*
