#Run DFT geometry optimization
! wB97X-D3 def2-TZVP TIGHTSCF Grid5 FinalGrid6 Opt CHELPG PAL4

%base "3_geo_opt"
%geom MaxIter 500
end

%geom
  Constraints
    { A 2 1 0 C }
  end
end


* xyz 0 1
  C                    3.011103             -1.182901            0.599910            
  O                    4.394673             -1.128050            0.874308            
  H                    4.773701             -0.379401            0.413112            
  H                    2.806434             -1.318965            -0.469350           
  H                    2.611632             -2.040265            1.135898            
  H                    2.484757             -0.284491            0.945659            
*
