     # Non-bonded interactions (pair-wise)
     pair_coeff           1          1          lj/cut/coul/long      0.021355             2.477342            
     pair_coeff           1          2          lj/cut/coul/long      0.014532             2.483786            
     pair_coeff           1          3          lj/cut/coul/long      0.030865             3.285823            
     pair_coeff           1          4          lj/cut/coul/long      0.037727             3.069161            
     pair_coeff           1          5          lj/cut/coul/long      0.023040             3.078588            
     pair_coeff           1          6          lj/cut/coul/long      0.057531             2.665835            
     pair_coeff           2          2          lj/cut/coul/long      0.009892             2.490147            
     pair_coeff           2          3          lj/cut/coul/long      0.021273             3.287401            
     pair_coeff           2          4          lj/cut/coul/long      0.025964             3.071379            
     pair_coeff           2          5          lj/cut/coul/long      0.015858             3.080772            
     pair_coeff           2          6          lj/cut/coul/long      0.039368             2.670311            
     pair_coeff           3          3          lj/cut/coul/long      0.133721             3.629469            
     pair_coeff           3          4          lj/cut/coul/long      0.133178             3.507869            
     pair_coeff           3          5          lj/cut/coul/long      0.082160             3.512723            
     pair_coeff           3          6          lj/cut/coul/long      0.117211             3.339201            
     pair_coeff           4          4          lj/cut/coul/long      0.139834             3.360615            
     pair_coeff           4          5          lj/cut/coul/long      0.086057             3.366624            
     pair_coeff           4          6          lj/cut/coul/long      0.136888             3.142790            
     pair_coeff           5          5          lj/cut/coul/long      0.052968             3.372579            
     pair_coeff           5          6          lj/cut/coul/long      0.083802             3.151171            
     pair_coeff           6          6          lj/cut/coul/long      0.177478             2.804620            

     # Stretching interactions
     bond_coeff           1           399.159437           1.085813            
     bond_coeff           2           406.025955           1.083635            
     bond_coeff           3           710.256969           1.327076            
     bond_coeff           4           410.248585           1.434665            
     bond_coeff           5           1443.873011          1.149011            

     # Bending interactions
     angle_coeff          1           32.289533            116.965476          
     angle_coeff          2           34.420623            121.585112          
     angle_coeff          3           10.000023            121.530282          
     angle_coeff          4           56.463396            115.837982          
     angle_coeff          5           24.637271            178.000777          
     angle_coeff          6           48.432849            123.348849          

     # Dihedral interactions
     dihedral_coeff       1          harmonic              1.000000            -1                    2                   
     dihedral_coeff       2          harmonic              2.036644            -1                    2                   
     dihedral_coeff       3          opls                  0.000000             0.000000             0.000000             0.000000            
     dihedral_coeff       4          opls                  0.000000             0.000000             0.000000             0.000000            
