#Run DFT geometry optimization
! wB97X-D3 def2-TZVP TIGHTSCF Grid5 FinalGrid6 Opt CHELPG PAL4

%base "2_geo_opt"
%geom MaxIter 500
end

%geom
  Constraints
    { B 0 1 C }
  end
end


* xyz 0 1
  C                    3.011014             -1.180908            0.598433            
  O                    4.394967             -1.128039            0.874366            
  H                    4.772490             -0.379011            0.412552            
  H                    2.806140             -1.318976            -0.469408           
  H                    2.611338             -2.040276            1.135840            
  H                    2.484463             -0.284502            0.945600            
*
