#Run DFT-D3 single point of the dimer
! wB97X-D3 def2-TZVP TIGHTSCF  CHELPG PAL8

%base "55_charges"

%scf
MaxIter 1000
end
%output
  Print[ P_Mayer ] 1
  Print[ P_NatPop ] 1
  Print[ P_Hirshfeld ] 1
  Print[ P_Mulliken ] 1
  Print [ P_Loewdin ] 1
end

* xyz 0 1
  C                      -5.978338            3.614962             -5.693333           
  O                      -6.634230            3.220069             -6.907562           
  H                      -7.443305            2.703362             -6.688042           
  H                      -5.761461            2.739398             -5.055314           
  H                      -5.102059            4.099193             -5.866813           
  H                      -6.626964            4.314765             -5.108241           
*
