     # Non-bonded interactions (pair-wise)
     pair_coeff           1          1          lj/cut/coul/long      0.024470             2.445635            
     pair_coeff           1          2          lj/cut/coul/long      0.014170             2.455724            
     pair_coeff           1          3          lj/cut/coul/long      0.048339             2.956862            
     pair_coeff           1          4          lj/cut/coul/long      0.027446             3.193652            
     pair_coeff           1          5          lj/cut/coul/long      0.046962             3.065671            
     pair_coeff           1          6          lj/cut/coul/long      0.044175             2.825362            
     pair_coeff           1          7          lj/cut/coul/long      0.073330             2.486985            
     pair_coeff           2          2          lj/cut/coul/long      0.008210             2.465609            
     pair_coeff           2          3          lj/cut/coul/long      0.028464             2.960794            
     pair_coeff           2          4          lj/cut/coul/long      0.016209             3.196331            
     pair_coeff           2          5          lj/cut/coul/long      0.027695             3.068956            
     pair_coeff           2          6          lj/cut/coul/long      0.025947             2.830293            
     pair_coeff           2          7          lj/cut/coul/long      0.042562             2.496272            
     pair_coeff           3          3          lj/cut/coul/long      0.177556             3.223857            
     pair_coeff           3          4          lj/cut/coul/long      0.118574             3.389120            
     pair_coeff           3          5          lj/cut/coul/long      0.187269             3.297025            
     pair_coeff           3          6          lj/cut/coul/long      0.143974             3.142487            
     pair_coeff           3          7          lj/cut/coul/long      0.154941             2.973329            
     pair_coeff           4          4          lj/cut/coul/long      0.084885             3.521812            
     pair_coeff           4          5          lj/cut/coul/long      0.129281             3.446917            
     pair_coeff           4          6          lj/cut/coul/long      0.092187             3.326819            
     pair_coeff           4          7          lj/cut/coul/long      0.089053             3.204912            
     pair_coeff           5          5          lj/cut/coul/long      0.200699             3.362875            
     pair_coeff           5          6          lj/cut/coul/long      0.148744             3.224899            
     pair_coeff           5          7          lj/cut/coul/long      0.151493             3.079453            
     pair_coeff           6          6          lj/cut/coul/long      0.120043             3.048979            
     pair_coeff           6          7          lj/cut/coul/long      0.140153             2.845946            
     pair_coeff           7          7          lj/cut/coul/long      0.221782             2.525159            

     # Stretching interactions
     bond_coeff           1           383.532268           1.091469            
     bond_coeff           2           341.937780           1.105687            
     bond_coeff           3           306.173655           1.507645            
     bond_coeff           4           468.828424           1.351977            
     bond_coeff           5           861.220954           1.217208            
     bond_coeff           6           373.077401           1.437826            

     # Bending interactions
     angle_coeff          1           39.468349            109.609291          
     angle_coeff          2           39.036967            110.217850          
     angle_coeff          3           40.450011            108.151958          
     angle_coeff          4           56.802204            109.458879          
     angle_coeff          5           12.075645            122.541624          
     angle_coeff          6           124.149014           117.025393          
     angle_coeff          7           113.224372           121.760274          
     angle_coeff          8           112.238128           120.549313          
     angle_coeff          9           55.932085            122.179463          

     # Dihedral interactions
     dihedral_coeff       1          opls                  1.871307            -1.268120            -0.724123             0.777684            
     dihedral_coeff       2          opls                 -1.566125            -1.274942            -0.492185             1.510011            
     dihedral_coeff       3          opls                 -0.331624             0.478031            -0.133726            -0.661099            
     dihedral_coeff       4          opls                  0.160744             0.547283             0.474584             0.103567            
     dihedral_coeff       5          opls                  1.217095             4.977334             0.477902            -0.264817            
     dihedral_coeff       6          opls                 -2.035315             5.534152            -0.409030            -1.078762            
