#Run DFT-D3 single point of the dimer
! wB97X-D3 def2-TZVP TIGHTSCF CHELPG PMODEL PAL8

%base "17-194_DFT_AB"

%scf
MaxIter 1000
end

* xyz 0 1
  C                      11.278388            -8.965989            3.740547            
  O                      11.382558            -8.519057            2.368297            
  H                      10.453078            -8.329713            2.122993            
  H                      11.178843            -8.180543            4.456480            
  H                      10.376415            -9.599793            3.820679            
  H                      12.075640            -9.604015            4.160586            
  C                      9.143372             -7.572181            0.008612            
  O                      8.942419             -7.574680            1.476600            
  H                      8.089438             -7.102044            1.679372            
  H                      8.147508             -7.555728            -0.501791           
  H                      9.797707             -6.727345            -0.336407           
  H                      9.685008             -8.484827            -0.339641           
*

#Run DFT-D3 single point of the molecule with dimer basis set
$new_job
%base "17-194_DFT_A"
! wB97X-D3 def2-TZVP TIGHTSCF CHELPG PMODEL

%scf
MaxIter 1000
end

* xyz 0 1
  C                      11.278388            -8.965989            3.740547            
  O                      11.382558            -8.519057            2.368297            
  H                      10.453078            -8.329713            2.122993            
  H                      11.178843            -8.180543            4.456480            
  H                      10.376415            -9.599793            3.820679            
  H                      12.075640            -9.604015            4.160586            
  C                    : 9.143372             -7.572181            0.008612            
  O                    : 8.942419             -7.574680            1.476600            
  H                    : 8.089438             -7.102044            1.679372            
  H                    : 8.147508             -7.555728            -0.501791           
  H                    : 9.797707             -6.727345            -0.336407           
  H                    : 9.685008             -8.484827            -0.339641           
*

#Run DFT-D3 single point of the particle with dimer basis set
$new_job
%base "17-194_DFT_B"
! wB97X-D3 def2-TZVP TIGHTSCF CHELPG PMODEL

%scf
MaxIter 1000
end

* xyz 0 1
  C                    : 11.278388            -8.965989            3.740547            
  O                    : 11.382558            -8.519057            2.368297            
  H                    : 10.453078            -8.329713            2.122993            
  H                    : 11.178843            -8.180543            4.456480            
  H                    : 10.376415            -9.599793            3.820679            
  H                    : 12.075640            -9.604015            4.160586            
  C                      9.143372             -7.572181            0.008612            
  O                      8.942419             -7.574680            1.476600            
  H                      8.089438             -7.102044            1.679372            
  H                      8.147508             -7.555728            -0.501791           
  H                      9.797707             -6.727345            -0.336407           
  H                      9.685008             -8.484827            -0.339641           
*
