     # Non-bonded interactions (pair-wise)
     pair_coeff           1          1          lj/cut/coul/long      0.024470             2.445635            
     pair_coeff           1          2          lj/cut/coul/long      0.018597             2.443774            
     pair_coeff           1          3          lj/cut/coul/long      0.013733             2.436158            
     pair_coeff           1          4          lj/cut/coul/long      0.038780             3.076876            
     pair_coeff           1          5          lj/cut/coul/long      0.033464             2.970922            
     pair_coeff           1          6          lj/cut/coul/long      0.038138             3.081187            
     pair_coeff           1          7          lj/cut/coul/long      0.037083             3.115585            
     pair_coeff           1          8          lj/cut/coul/long      0.062239             2.593225            
     pair_coeff           2          2          lj/cut/coul/long      0.014134             2.441906            
     pair_coeff           2          3          lj/cut/coul/long      0.010438             2.434260            
     pair_coeff           2          4          lj/cut/coul/long      0.029372             3.076286            
     pair_coeff           2          5          lj/cut/coul/long      0.025353             2.970220            
     pair_coeff           2          6          lj/cut/coul/long      0.028886             3.080602            
     pair_coeff           2          7          lj/cut/coul/long      0.028084             3.115031            
     pair_coeff           2          8          lj/cut/coul/long      0.047237             2.591838            
     pair_coeff           3          3          lj/cut/coul/long      0.007711             2.426493            
     pair_coeff           3          4          lj/cut/coul/long      0.021387             3.073891            
     pair_coeff           3          5          lj/cut/coul/long      0.018480             2.967364            
     pair_coeff           3          6          lj/cut/coul/long      0.021031             3.078223            
     pair_coeff           3          7          lj/cut/coul/long      0.020442             3.112781            
     pair_coeff           3          8          lj/cut/coul/long      0.034686             2.586176            
     pair_coeff           4          4          lj/cut/coul/long      0.139443             3.376965            
     pair_coeff           4          5          lj/cut/coul/long      0.109377             3.312946            
     pair_coeff           4          6          lj/cut/coul/long      0.137627             3.379676            
     pair_coeff           4          7          lj/cut/coul/long      0.137594             3.401596            
     pair_coeff           4          8          lj/cut/coul/long      0.126731             3.129092            
     pair_coeff           5          5          lj/cut/coul/long      0.087083             3.242068            
     pair_coeff           5          6          lj/cut/coul/long      0.107889             3.315929            
     pair_coeff           5          7          lj/cut/coul/long      0.107369             3.339991            
     pair_coeff           5          8          lj/cut/coul/long      0.106954             3.032552            
     pair_coeff           6          6          lj/cut/coul/long      0.135838             3.382377            
     pair_coeff           6          7          lj/cut/coul/long      0.135830             3.404211            
     pair_coeff           6          8          lj/cut/coul/long      0.124733             3.133057            
     pair_coeff           7          7          lj/cut/coul/long      0.136017             3.425366            
     pair_coeff           7          8          lj/cut/coul/long      0.122030             3.164783            
     pair_coeff           8          8          lj/cut/coul/long      0.173555             2.707894            

     # Stretching interactions
     bond_coeff           1           379.582319           1.092452            
     bond_coeff           2           366.572161           1.097939            
     bond_coeff           3           360.223696           1.097959            
     bond_coeff           4           299.381669           1.523050            
     bond_coeff           5           306.434384           1.519008            
     bond_coeff           6           275.120932           1.511677            
     bond_coeff           7           933.958310           1.205666            

     # Bending interactions
     angle_coeff          1           41.062153            107.765742          
     angle_coeff          2           44.103654            111.318492          
     angle_coeff          3           42.198827            105.533232          
     angle_coeff          4           32.593646            109.591616          
     angle_coeff          5           40.567479            109.312161          
     angle_coeff          6           59.429802            107.933631          
     angle_coeff          7           59.996841            107.535134          
     angle_coeff          8           42.765281            108.922224          
     angle_coeff          9           84.518323            110.534540          
     angle_coeff          10          89.265309            112.272635          
     angle_coeff          11          49.239142            115.830808          
     angle_coeff          12          75.278189            121.993247          

     # Dihedral interactions
     dihedral_coeff       1          opls                  0.293458            -0.083446             1.022351             0.014162            
     dihedral_coeff       2          opls                 -0.235979            -0.010735            -0.094676            -0.031936            
     dihedral_coeff       3          opls                 -0.453154            -0.906157             0.098644            -0.678344            
     dihedral_coeff       4          opls                  3.063636             4.930564             0.534161             1.894606            
     dihedral_coeff       5          opls                 -1.238961            -2.641879            -0.435380            -0.959181            
     dihedral_coeff       6          opls                  0.409630            -1.370080             6.658894            -4.710441            
     dihedral_coeff       7          opls                  2.751597            -0.214250             7.622159             0.195779            
     dihedral_coeff       8          opls                  6.238556             2.121942             1.092721             2.927052            
     dihedral_coeff       9          opls                 -4.470310             1.127507             8.669664            -0.636069            
     dihedral_coeff       10         opls                 -6.300025            -1.534877             6.083682            -5.160975            
     dihedral_coeff       11         opls                 -2.375661            -1.961902             0.871418            -2.629184            
