#Run DFT-D3 single point of the dimer
! wB97X-D3 def2-TZVP TIGHTSCF CHELPG PMODEL PAL8

%base "18-149_DFT_AB"

%scf
MaxIter 1000
end

* xyz 0 1
  C                      -0.641337            -1.278704            2.735910            
  O                      -0.235503            -1.995124            1.558616            
  H                      -0.216393            -1.287634            0.896333            
  H                      -1.715056            -1.169015            2.646839            
  H                      -0.486806            -1.780883            3.720906            
  H                      -0.073791            -0.337690            2.824643            
  C                      -0.304787            0.711468             -1.671236           
  O                      -0.358913            0.136075             -0.411054           
  H                      -0.991350            0.716798             0.069101            
  H                      -0.935680            0.160877             -2.344525           
  H                      -0.561862            1.807531             -1.623286           
  H                      0.713129             0.581412             -2.045958           
*

#Run DFT-D3 single point of the molecule with dimer basis set
$new_job
%base "18-149_DFT_A"
! wB97X-D3 def2-TZVP TIGHTSCF CHELPG PMODEL

%scf
MaxIter 1000
end

* xyz 0 1
  C                      -0.641337            -1.278704            2.735910            
  O                      -0.235503            -1.995124            1.558616            
  H                      -0.216393            -1.287634            0.896333            
  H                      -1.715056            -1.169015            2.646839            
  H                      -0.486806            -1.780883            3.720906            
  H                      -0.073791            -0.337690            2.824643            
  C                    : -0.304787            0.711468             -1.671236           
  O                    : -0.358913            0.136075             -0.411054           
  H                    : -0.991350            0.716798             0.069101            
  H                    : -0.935680            0.160877             -2.344525           
  H                    : -0.561862            1.807531             -1.623286           
  H                    : 0.713129             0.581412             -2.045958           
*

#Run DFT-D3 single point of the particle with dimer basis set
$new_job
%base "18-149_DFT_B"
! wB97X-D3 def2-TZVP TIGHTSCF CHELPG PMODEL

%scf
MaxIter 1000
end

* xyz 0 1
  C                    : -0.641337            -1.278704            2.735910            
  O                    : -0.235503            -1.995124            1.558616            
  H                    : -0.216393            -1.287634            0.896333            
  H                    : -1.715056            -1.169015            2.646839            
  H                    : -0.486806            -1.780883            3.720906            
  H                    : -0.073791            -0.337690            2.824643            
  C                      -0.304787            0.711468             -1.671236           
  O                      -0.358913            0.136075             -0.411054           
  H                      -0.991350            0.716798             0.069101            
  H                      -0.935680            0.160877             -2.344525           
  H                      -0.561862            1.807531             -1.623286           
  H                      0.713129             0.581412             -2.045958           
*
