#Run DFT-D3 single point of the dimer
! wB97X-D3 def2-TZVP TIGHTSCF  CHELPG PAL8

%base "80_charges"

%scf
MaxIter 1000
end
%output
  Print[ P_Mayer ] 1
  Print[ P_NatPop ] 1
  Print[ P_Hirshfeld ] 1
  Print[ P_Mulliken ] 1
  Print [ P_Loewdin ] 1
end

* xyz 0 1
  C                      7.240818             0.947479             5.085828            
  O                      6.950179             -0.398360            4.702184            
  H                      6.061717             -0.530768            5.076460            
  H                      6.503277             1.361131             5.692185            
  H                      8.224877             1.035540             5.485676            
  H                      7.228435             1.644501             4.217846            
*
