#Run DFT-D3 single point of the dimer
! wB97X-D3 def2-TZVP TIGHTSCF CHELPG PMODEL PAL8

%base "5-182_DFT_AB"

%scf
MaxIter 1000
end

* xyz 0 1
  C                      4.825682             7.265460             -7.768343           
  O                      5.779126             6.637788             -8.583471           
  H                      5.473405             5.795427             -8.867875           
  H                      3.981013             6.698831             -7.377648           
  H                      5.229040             7.730813             -6.949969           
  H                      4.305574             7.995859             -8.454281           
  C                      6.677897             3.680953             -10.009311          
  O                      5.601949             3.338755             -9.115723           
  H                      5.015415             2.754194             -9.571947           
  H                      7.225566             2.797239             -10.323432          
  H                      6.255010             4.209416             -10.893649          
  H                      7.307395             4.413736             -9.506670           
*

#Run DFT-D3 single point of the molecule with dimer basis set
$new_job
%base "5-182_DFT_A"
! wB97X-D3 def2-TZVP TIGHTSCF CHELPG PMODEL

%scf
MaxIter 1000
end

* xyz 0 1
  C                      4.825682             7.265460             -7.768343           
  O                      5.779126             6.637788             -8.583471           
  H                      5.473405             5.795427             -8.867875           
  H                      3.981013             6.698831             -7.377648           
  H                      5.229040             7.730813             -6.949969           
  H                      4.305574             7.995859             -8.454281           
  C                    : 6.677897             3.680953             -10.009311          
  O                    : 5.601949             3.338755             -9.115723           
  H                    : 5.015415             2.754194             -9.571947           
  H                    : 7.225566             2.797239             -10.323432          
  H                    : 6.255010             4.209416             -10.893649          
  H                    : 7.307395             4.413736             -9.506670           
*

#Run DFT-D3 single point of the particle with dimer basis set
$new_job
%base "5-182_DFT_B"
! wB97X-D3 def2-TZVP TIGHTSCF CHELPG PMODEL

%scf
MaxIter 1000
end

* xyz 0 1
  C                    : 4.825682             7.265460             -7.768343           
  O                    : 5.779126             6.637788             -8.583471           
  H                    : 5.473405             5.795427             -8.867875           
  H                    : 3.981013             6.698831             -7.377648           
  H                    : 5.229040             7.730813             -6.949969           
  H                    : 4.305574             7.995859             -8.454281           
  C                      6.677897             3.680953             -10.009311          
  O                      5.601949             3.338755             -9.115723           
  H                      5.015415             2.754194             -9.571947           
  H                      7.225566             2.797239             -10.323432          
  H                      6.255010             4.209416             -10.893649          
  H                      7.307395             4.413736             -9.506670           
*
