     # Non-bonded interactions (pair-wise)
     pair_coeff           1          1          lj/cut/coul/long      0.024470             2.445635            
     pair_coeff           1          2          lj/cut/coul/long      0.007296             2.506407            
     pair_coeff           1          3          lj/cut/coul/long      0.040775             3.119560            
     pair_coeff           1          4          lj/cut/coul/long      0.033576             3.071558            
     pair_coeff           1          5          lj/cut/coul/long      0.037587             3.139691            
     pair_coeff           1          6          lj/cut/coul/long      0.028888             3.110904            
     pair_coeff           1          7          lj/cut/coul/long      0.032340             2.752394            
     pair_coeff           1          8          lj/cut/coul/long      0.064639             2.583449            
     pair_coeff           2          2          lj/cut/coul/long      0.002217             2.560598            
     pair_coeff           2          3          lj/cut/coul/long      0.013586             3.138425            
     pair_coeff           2          4          lj/cut/coul/long      0.011149             3.091915            
     pair_coeff           2          5          lj/cut/coul/long      0.012541             3.157970            
     pair_coeff           2          6          lj/cut/coul/long      0.009620             3.130028            
     pair_coeff           2          7          lj/cut/coul/long      0.010363             2.787103            
     pair_coeff           2          8          lj/cut/coul/long      0.020042             2.630431            
     pair_coeff           3          3          lj/cut/coul/long      0.165549             3.430313            
     pair_coeff           3          4          lj/cut/coul/long      0.130780             3.400960            
     pair_coeff           3          5          lj/cut/coul/long      0.155158             3.442922            
     pair_coeff           3          6          lj/cut/coul/long      0.116437             3.424945            
     pair_coeff           3          7          lj/cut/coul/long      0.088336             3.233248            
     pair_coeff           3          8          lj/cut/coul/long      0.137251             3.164893            
     pair_coeff           4          4          lj/cut/coul/long      0.103604             3.370283            
     pair_coeff           4          5          lj/cut/coul/long      0.122431             3.414117            
     pair_coeff           4          6          lj/cut/coul/long      0.092029             3.395355            
     pair_coeff           4          7          lj/cut/coul/long      0.071394             3.193419            
     pair_coeff           4          8          lj/cut/coul/long      0.112111             3.120379            
     pair_coeff           5          5          lj/cut/coul/long      0.145488             3.455305            
     pair_coeff           5          6          lj/cut/coul/long      0.109106             3.437653            
     pair_coeff           5          7          lj/cut/coul/long      0.082030             3.250133            
     pair_coeff           5          8          lj/cut/coul/long      0.126919             3.183648            
     pair_coeff           6          6          lj/cut/coul/long      0.081902             3.419535            
     pair_coeff           6          7          lj/cut/coul/long      0.062381             3.226021            
     pair_coeff           6          8          lj/cut/coul/long      0.097104             3.156844            
     pair_coeff           7          7          lj/cut/coul/long      0.057596             2.947390            
     pair_coeff           7          8          lj/cut/coul/long      0.099608             2.834024            
     pair_coeff           8          8          lj/cut/coul/long      0.185310             2.692064            

     # Stretching interactions
     bond_coeff           1           384.226258           1.090916            
     bond_coeff           2           399.132795           1.085830            
     bond_coeff           3           352.582240           1.100892            
     bond_coeff           4           327.528067           1.511076            
     bond_coeff           5           300.709160           1.432822            
     bond_coeff           6           321.903261           1.502210            
     bond_coeff           7           405.508304           1.337687            
     bond_coeff           8           935.252065           1.201225            

     # Bending interactions
     angle_coeff          1           40.182835            108.640655          
     angle_coeff          2           39.852429            110.357159          
     angle_coeff          3           34.984559            110.155387          
     angle_coeff          4           46.502240            109.566563          
     angle_coeff          5           42.903844            107.041954          
     angle_coeff          6           44.237128            110.840886          
     angle_coeff          7           57.874101            109.450535          
     angle_coeff          8           82.859113            114.305196          
     angle_coeff          9           71.162472            109.023197          
     angle_coeff          10          70.635947            112.248687          
     angle_coeff          11          48.120950            124.752204          
     angle_coeff          12          107.028429           122.916489          

     # Dihedral interactions
     dihedral_coeff       1          opls                  0.217299             0.138478             0.223412             0.014708            
     dihedral_coeff       2          opls                 -0.354298            -0.327676             0.543085            -0.058369            
     dihedral_coeff       3          opls                 -0.120432             0.134450            -0.019036             0.100194            
     dihedral_coeff       4          opls                 -0.091188             0.085556            -0.064479             0.092972            
     dihedral_coeff       5          opls                  0.648829            -0.023759             0.173669            -0.145599            
     dihedral_coeff       6          opls                  1.024659             5.227607            -0.601591             0.166350            
     dihedral_coeff       7          opls                 -2.845240             5.366408            -0.974018             0.011579            
     dihedral_coeff       8          opls                 -1.315213             0.141842             0.062265            -0.116254            
