     # Non-bonded interactions (pair-wise)
     pair_coeff           1          1          lj/cut/coul/long      0.024470             2.445635            
     pair_coeff           1          2          lj/cut/coul/long      0.018597             2.443774            
     pair_coeff           1          3          lj/cut/coul/long      0.012948             2.428467            
     pair_coeff           1          4          lj/cut/coul/long      0.003317             2.229575            
     pair_coeff           1          5          lj/cut/coul/long      0.039399             3.057702            
     pair_coeff           1          6          lj/cut/coul/long      0.036581             3.133852            
     pair_coeff           1          7          lj/cut/coul/long      0.037488             3.107619            
     pair_coeff           1          8          lj/cut/coul/long      0.043542             2.803887            
     pair_coeff           2          2          lj/cut/coul/long      0.014134             2.441906            
     pair_coeff           2          3          lj/cut/coul/long      0.009842             2.426539            
     pair_coeff           2          4          lj/cut/coul/long      0.002529             2.226616            
     pair_coeff           2          5          lj/cut/coul/long      0.029842             3.057094            
     pair_coeff           2          6          lj/cut/coul/long      0.027703             3.133315            
     pair_coeff           2          7          lj/cut/coul/long      0.028392             3.107058            
     pair_coeff           2          8          lj/cut/coul/long      0.033007             2.802948            
     pair_coeff           3          3          lj/cut/coul/long      0.006864             2.410669            
     pair_coeff           3          4          lj/cut/coul/long      0.001813             2.201944            
     pair_coeff           3          5          lj/cut/coul/long      0.020204             3.052155            
     pair_coeff           3          6          lj/cut/coul/long      0.018730             3.128950            
     pair_coeff           3          7          lj/cut/coul/long      0.019204             3.102505            
     pair_coeff           3          8          lj/cut/coul/long      0.022496             2.795305            
     pair_coeff           4          4          lj/cut/coul/long      0.001000             1.779072            
     pair_coeff           4          5          lj/cut/coul/long      0.003451             2.998042            
     pair_coeff           4          6          lj/cut/coul/long      0.003150             3.081463            
     pair_coeff           4          7          lj/cut/coul/long      0.003246             3.052857            
     pair_coeff           4          8          lj/cut/coul/long      0.004171             2.708490            
     pair_coeff           5          5          lj/cut/coul/long      0.139401             3.352830            
     pair_coeff           5          6          lj/cut/coul/long      0.137439             3.402114            
     pair_coeff           5          7          lj/cut/coul/long      0.138068             3.384858            
     pair_coeff           5          8          lj/cut/coul/long      0.119460             3.207647            
     pair_coeff           6          6          lj/cut/coul/long      0.136463             3.448067            
     pair_coeff           6          7          lj/cut/coul/long      0.136760             3.431947            
     pair_coeff           6          8          lj/cut/coul/long      0.114850             3.268486            
     pair_coeff           7          7          lj/cut/coul/long      0.137169             3.415439            
     pair_coeff           7          8          lj/cut/coul/long      0.116355             3.247329            
     pair_coeff           8          8          lj/cut/coul/long      0.112813             3.019480            

     # Stretching interactions
     bond_coeff           1           377.846244           1.093155            
     bond_coeff           2           374.899596           1.094567            
     bond_coeff           3           367.940723           1.096223            
     bond_coeff           4           607.128288           0.958235            
     bond_coeff           5           314.867520           1.522519            
     bond_coeff           6           290.204702           1.524045            
     bond_coeff           7           340.123474           1.421879            

     # Bending interactions
     angle_coeff          1           41.552646            107.471780          
     angle_coeff          2           44.801713            111.718118          
     angle_coeff          3           45.079865            106.741677          
     angle_coeff          4           31.572207            111.181994          
     angle_coeff          5           37.311434            107.095806          
     angle_coeff          6           59.592844            108.767420          
     angle_coeff          7           18.236224            103.553491          
     angle_coeff          8           48.620059            107.474196          
     angle_coeff          9           51.294288            110.740632          
     angle_coeff          10          85.800529            112.216414          
     angle_coeff          11          99.765718            111.314763          

     # Dihedral interactions
     dihedral_coeff       1          opls                 -0.000217             0.026212             0.329494            -0.012412            
     dihedral_coeff       2          opls                 -0.144059            -0.213193             0.179387            -0.060097            
     dihedral_coeff       3          opls                  0.448905            -0.172577             0.573220             0.181193            
     dihedral_coeff       4          opls                  0.245471             0.947561             0.766155            -0.237384            
     dihedral_coeff       5          opls                 -0.773601            -0.130274             0.340388             0.050916            
     dihedral_coeff       6          opls                 -0.827714            -0.878755             0.225419             0.166629            
     dihedral_coeff       7          opls                  0.051941             0.670335             0.371705            -0.288010            
     dihedral_coeff       8          opls                  0.031009            -0.448656             0.409779            -0.411302            
     dihedral_coeff       9          opls                 -0.801202             0.430918             0.485479            -0.503431            
     dihedral_coeff       10         opls                  1.221862            -1.268520            -0.166135             0.002114            
