#Run DFT-D3 single point of the dimer
! wB97X-D3 def2-TZVP TIGHTSCF CHELPG PMODEL PAL8

%base "18-139_DFT_AB"

%scf
MaxIter 1000
end

* xyz 0 1
  C                      2.523888             4.676657             7.090738            
  O                      2.566897             6.070124             6.773619            
  H                      1.949694             6.599378             7.303895            
  H                      3.367195             4.206097             6.586594            
  H                      2.634672             4.644139             8.164876            
  H                      1.636308             4.135860             6.734283            
  C                      4.100286             2.419518             4.578838            
  O                      4.571700             3.775638             4.629194            
  H                      3.838929             4.233463             4.255375            
  H                      3.081155             2.408276             4.861014            
  H                      4.080533             1.920868             3.605897            
  H                      4.727841             1.750703             5.215968            
*

#Run DFT-D3 single point of the molecule with dimer basis set
$new_job
%base "18-139_DFT_A"
! wB97X-D3 def2-TZVP TIGHTSCF CHELPG PMODEL

%scf
MaxIter 1000
end

* xyz 0 1
  C                      2.523888             4.676657             7.090738            
  O                      2.566897             6.070124             6.773619            
  H                      1.949694             6.599378             7.303895            
  H                      3.367195             4.206097             6.586594            
  H                      2.634672             4.644139             8.164876            
  H                      1.636308             4.135860             6.734283            
  C                    : 4.100286             2.419518             4.578838            
  O                    : 4.571700             3.775638             4.629194            
  H                    : 3.838929             4.233463             4.255375            
  H                    : 3.081155             2.408276             4.861014            
  H                    : 4.080533             1.920868             3.605897            
  H                    : 4.727841             1.750703             5.215968            
*

#Run DFT-D3 single point of the particle with dimer basis set
$new_job
%base "18-139_DFT_B"
! wB97X-D3 def2-TZVP TIGHTSCF CHELPG PMODEL

%scf
MaxIter 1000
end

* xyz 0 1
  C                    : 2.523888             4.676657             7.090738            
  O                    : 2.566897             6.070124             6.773619            
  H                    : 1.949694             6.599378             7.303895            
  H                    : 3.367195             4.206097             6.586594            
  H                    : 2.634672             4.644139             8.164876            
  H                    : 1.636308             4.135860             6.734283            
  C                      4.100286             2.419518             4.578838            
  O                      4.571700             3.775638             4.629194            
  H                      3.838929             4.233463             4.255375            
  H                      3.081155             2.408276             4.861014            
  H                      4.080533             1.920868             3.605897            
  H                      4.727841             1.750703             5.215968            
*
