#Run DFT-D3 single point of the dimer
! wB97X-D3 def2-TZVP TIGHTSCF  CHELPG PAL8

%base "64_charges"

%scf
MaxIter 1000
end
%output
  Print[ P_Mayer ] 1
  Print[ P_NatPop ] 1
  Print[ P_Hirshfeld ] 1
  Print[ P_Mulliken ] 1
  Print [ P_Loewdin ] 1
end

* xyz 0 1
  C                      9.495482             -10.342722           -3.673967           
  O                      10.644217            -9.910621            -3.001201           
  H                      10.948021            -10.622128           -2.414928           
  H                      9.815591             -11.141785           -4.446540           
  H                      8.789315             -10.850703           -3.008992           
  H                      8.927938             -9.488505            -4.042059           
*
