#Run DFT-D3 single point of the dimer
! wB97X-D3 def2-TZVP TIGHTSCF CHELPG PMODEL PAL8

%base "5-6_DFT_AB"

%scf
MaxIter 1000
end

* xyz 0 1
  C                      7.637502             -1.565497            0.430449            
  O                      6.279459             -1.591730            0.075538            
  H                      6.138315             -2.503580            0.236057            
  H                      8.043561             -0.510717            0.303914            
  H                      7.798157             -1.853950            1.427963            
  H                      8.171181             -2.284390            -0.145285           
  C                      10.279933            -1.915904            3.816255            
  O                      10.101626            -2.056084            2.430232            
  H                      10.150793            -2.970228            2.114870            
  H                      9.557512             -2.613513            4.252691            
  H                      11.285277            -2.301388            4.035539            
  H                      10.037346            -0.903307            4.215653            
*

#Run DFT-D3 single point of the molecule with dimer basis set
$new_job
%base "5-6_DFT_A"
! wB97X-D3 def2-TZVP TIGHTSCF CHELPG PMODEL

%scf
MaxIter 1000
end

* xyz 0 1
  C                      7.637502             -1.565497            0.430449            
  O                      6.279459             -1.591730            0.075538            
  H                      6.138315             -2.503580            0.236057            
  H                      8.043561             -0.510717            0.303914            
  H                      7.798157             -1.853950            1.427963            
  H                      8.171181             -2.284390            -0.145285           
  C                    : 10.279933            -1.915904            3.816255            
  O                    : 10.101626            -2.056084            2.430232            
  H                    : 10.150793            -2.970228            2.114870            
  H                    : 9.557512             -2.613513            4.252691            
  H                    : 11.285277            -2.301388            4.035539            
  H                    : 10.037346            -0.903307            4.215653            
*

#Run DFT-D3 single point of the particle with dimer basis set
$new_job
%base "5-6_DFT_B"
! wB97X-D3 def2-TZVP TIGHTSCF CHELPG PMODEL

%scf
MaxIter 1000
end

* xyz 0 1
  C                    : 7.637502             -1.565497            0.430449            
  O                    : 6.279459             -1.591730            0.075538            
  H                    : 6.138315             -2.503580            0.236057            
  H                    : 8.043561             -0.510717            0.303914            
  H                    : 7.798157             -1.853950            1.427963            
  H                    : 8.171181             -2.284390            -0.145285           
  C                      10.279933            -1.915904            3.816255            
  O                      10.101626            -2.056084            2.430232            
  H                      10.150793            -2.970228            2.114870            
  H                      9.557512             -2.613513            4.252691            
  H                      11.285277            -2.301388            4.035539            
  H                      10.037346            -0.903307            4.215653            
*
