     # Non-bonded interactions (pair-wise)
     pair_coeff           1          1          lj/cut/coul/long      0.177226             3.493093            
     pair_coeff           1          2          lj/cut/coul/long      0.199413             3.500421            
     pair_coeff           1          3          lj/cut/coul/long      0.008540             3.176860            
     pair_coeff           1          4          lj/cut/coul/long      0.177401             3.418153            
     pair_coeff           1          5          lj/cut/coul/long      0.081171             3.731866            
     pair_coeff           2          2          lj/cut/coul/long      0.224413             3.507673            
     pair_coeff           2          3          lj/cut/coul/long      0.009518             3.188590            
     pair_coeff           2          4          lj/cut/coul/long      0.199265             3.426315            
     pair_coeff           2          5          lj/cut/coul/long      0.091708             3.737140            
     pair_coeff           3          3          lj/cut/coul/long      0.001000             2.491791            
     pair_coeff           3          4          lj/cut/coul/long      0.009568             3.050842            
     pair_coeff           3          5          lj/cut/coul/long      0.003126             3.523194            
     pair_coeff           4          4          lj/cut/coul/long      0.181074             3.333968            
     pair_coeff           4          5          lj/cut/coul/long      0.077715             3.678991            
     pair_coeff           5          5          lj/cut/coul/long      0.041643             3.912287            

     # Stretching interactions
     bond_coeff           1           204.139508           1.770943            
     bond_coeff           2           232.753031           1.761960            
     bond_coeff           3           394.275418           1.086942            
     bond_coeff           4           249.305096           1.552080            

     # Bending interactions
     angle_coeff          1           84.004290            109.918186          
     angle_coeff          2           71.763613            108.420411          
     angle_coeff          3           89.177145            110.296742          
     angle_coeff          4           47.497477            107.707084          
     angle_coeff          5           80.982117            111.739504          
     angle_coeff          6           46.234011            107.380759          

     # Dihedral interactions
     dihedral_coeff       1          opls                  1.140641             0.022616             2.056353             0.206575            
     dihedral_coeff       2          opls                 -3.110758            -0.198547            -0.852671            -0.593168            
