#Run DFT geometry optimization
! wB97X-D3 def2-TZVP TIGHTSCF Grid5 FinalGrid6 Opt CHELPG PAL4

%base "10_geo_opt"
%geom MaxIter 500
end

%geom
  Constraints
    { A 2 1 0 C }
  end
end


* xyz 0 1
  C                    3.011836             -1.175887            0.594949            
  O                    4.394673             -1.128050            0.874308            
  H                    4.768428             -0.378085            0.410951            
  H                    2.806434             -1.318965            -0.469350           
  H                    2.611632             -2.040265            1.135898            
  H                    2.484757             -0.284491            0.945659            
*
