#Run DFT-D3 single point of the dimer
! wB97X-D3 def2-TZVP TIGHTSCF CHELPG PMODEL PAL8

%base "8-98_DFT_AB"

%scf
MaxIter 1000
end

* xyz 0 1
  C                      -5.195719            -0.427144            9.365506            
  O                      -6.124433            -1.080566            10.163934           
  H                      -6.539004            -1.747450            9.631112            
  H                      -5.596017            -0.049719            8.423426            
  H                      -4.831508            0.366167             9.977338            
  H                      -4.342301            -1.112926            9.156067            
  C                      -0.275978            -1.399052            9.199394            
  O                      -0.958128            -2.355190            10.019750           
  H                      -0.339695            -3.022243            10.280683           
  H                      -0.951116            -1.011180            8.357782            
  H                      0.011920             -0.481083            9.730996            
  H                      0.554783             -1.852173            8.677638            
*

#Run DFT-D3 single point of the molecule with dimer basis set
$new_job
%base "8-98_DFT_A"
! wB97X-D3 def2-TZVP TIGHTSCF CHELPG PMODEL

%scf
MaxIter 1000
end

* xyz 0 1
  C                      -5.195719            -0.427144            9.365506            
  O                      -6.124433            -1.080566            10.163934           
  H                      -6.539004            -1.747450            9.631112            
  H                      -5.596017            -0.049719            8.423426            
  H                      -4.831508            0.366167             9.977338            
  H                      -4.342301            -1.112926            9.156067            
  C                    : -0.275978            -1.399052            9.199394            
  O                    : -0.958128            -2.355190            10.019750           
  H                    : -0.339695            -3.022243            10.280683           
  H                    : -0.951116            -1.011180            8.357782            
  H                    : 0.011920             -0.481083            9.730996            
  H                    : 0.554783             -1.852173            8.677638            
*

#Run DFT-D3 single point of the particle with dimer basis set
$new_job
%base "8-98_DFT_B"
! wB97X-D3 def2-TZVP TIGHTSCF CHELPG PMODEL

%scf
MaxIter 1000
end

* xyz 0 1
  C                    : -5.195719            -0.427144            9.365506            
  O                    : -6.124433            -1.080566            10.163934           
  H                    : -6.539004            -1.747450            9.631112            
  H                    : -5.596017            -0.049719            8.423426            
  H                    : -4.831508            0.366167             9.977338            
  H                    : -4.342301            -1.112926            9.156067            
  C                      -0.275978            -1.399052            9.199394            
  O                      -0.958128            -2.355190            10.019750           
  H                      -0.339695            -3.022243            10.280683           
  H                      -0.951116            -1.011180            8.357782            
  H                      0.011920             -0.481083            9.730996            
  H                      0.554783             -1.852173            8.677638            
*
