#Run DFT-D3 single point of the dimer
! wB97X-D3 def2-TZVP TIGHTSCF  CHELPG PAL8

%base "54_charges"

%scf
MaxIter 1000
end
%output
  Print[ P_Mayer ] 1
  Print[ P_NatPop ] 1
  Print[ P_Hirshfeld ] 1
  Print[ P_Mulliken ] 1
  Print [ P_Loewdin ] 1
end

* xyz 0 1
  C                      1.217627             4.527298             5.335568            
  O                      1.813239             3.554406             6.163367            
  H                      1.508848             3.716373             7.056617            
  H                      0.242277             4.765575             5.619763            
  H                      1.884101             5.391251             5.213598            
  H                      1.047946             4.133085             4.308583            
*
