     # Non-bonded interactions (pair-wise)
     pair_coeff           1          1          lj/cut/coul/long      0.024470             2.445635            
     pair_coeff           1          2          lj/cut/coul/long      0.018597             2.443774            
     pair_coeff           1          3          lj/cut/coul/long      0.007296             2.506407            
     pair_coeff           1          4          lj/cut/coul/long      0.003317             2.229575            
     pair_coeff           1          5          lj/cut/coul/long      0.039399             3.057702            
     pair_coeff           1          6          lj/cut/coul/long      0.040816             3.068688            
     pair_coeff           1          7          lj/cut/coul/long      0.040352             3.136834            
     pair_coeff           1          8          lj/cut/coul/long      0.037789             3.116326            
     pair_coeff           1          9          lj/cut/coul/long      0.056081             2.744410            
     pair_coeff           2          2          lj/cut/coul/long      0.014134             2.441906            
     pair_coeff           2          3          lj/cut/coul/long      0.005542             2.504762            
     pair_coeff           2          4          lj/cut/coul/long      0.002529             2.226616            
     pair_coeff           2          5          lj/cut/coul/long      0.029842             3.057094            
     pair_coeff           2          6          lj/cut/coul/long      0.030915             3.068090            
     pair_coeff           2          7          lj/cut/coul/long      0.030559             3.136299            
     pair_coeff           2          8          lj/cut/coul/long      0.028619             3.115773            
     pair_coeff           2          9          lj/cut/coul/long      0.042524             2.743365            
     pair_coeff           3          3          lj/cut/coul/long      0.002217             2.560598            
     pair_coeff           3          4          lj/cut/coul/long      0.000898             2.322126            
     pair_coeff           3          5          lj/cut/coul/long      0.013069             3.078515            
     pair_coeff           3          6          lj/cut/coul/long      0.013550             3.089138            
     pair_coeff           3          7          lj/cut/coul/long      0.013461             3.155194            
     pair_coeff           3          8          lj/cut/coul/long      0.012588             3.135288            
     pair_coeff           3          9          lj/cut/coul/long      0.017948             2.779607            
     pair_coeff           4          4          lj/cut/coul/long      0.001000             1.779072            
     pair_coeff           4          5          lj/cut/coul/long      0.003451             2.998042            
     pair_coeff           4          6          lj/cut/coul/long      0.003565             3.010151            
     pair_coeff           4          7          lj/cut/coul/long      0.003472             3.084706            
     pair_coeff           4          8          lj/cut/coul/long      0.003266             3.062367            
     pair_coeff           4          9          lj/cut/coul/long      0.005547             2.636846            
     pair_coeff           5          5          lj/cut/coul/long      0.139401             3.352830            
     pair_coeff           5          6          lj/cut/coul/long      0.145731             3.359787            
     pair_coeff           5          7          lj/cut/coul/long      0.151942             3.404093            
     pair_coeff           5          8          lj/cut/coul/long      0.140111             3.390554            
     pair_coeff           5          9          lj/cut/coul/long      0.142990             3.178189            
     pair_coeff           6          6          lj/cut/coul/long      0.152372             3.366672            
     pair_coeff           6          7          lj/cut/coul/long      0.159012             3.410544            
     pair_coeff           6          8          lj/cut/coul/long      0.146591             3.397134            
     pair_coeff           6          9          lj/cut/coul/long      0.148787             3.187262            
     pair_coeff           7          7          lj/cut/coul/long      0.166874             3.451764            
     pair_coeff           7          8          lj/cut/coul/long      0.153583             3.439144            
     pair_coeff           7          9          lj/cut/coul/long      0.150884             3.244255            
     pair_coeff           8          8          lj/cut/coul/long      0.141420             3.426289            
     pair_coeff           8          9          lj/cut/coul/long      0.140271             3.226978            
     pair_coeff           9          9          lj/cut/coul/long      0.171189             2.936022            

     # Stretching interactions
     bond_coeff           1           377.846244           1.093155            
     bond_coeff           2           368.488176           1.095580            
     bond_coeff           3           363.956837           1.097645            
     bond_coeff           4           356.736641           1.099182            
     bond_coeff           5           611.563703           0.957250            
     bond_coeff           6           313.531893           1.522660            
     bond_coeff           7           305.792905           1.522724            
     bond_coeff           8           305.482370           1.517218            
     bond_coeff           9           364.232036           1.417091            

     # Bending interactions
     angle_coeff          1           41.552646            107.471780          
     angle_coeff          2           43.036920            110.866477          
     angle_coeff          3           43.628825            106.010166          
     angle_coeff          4           45.160055            109.784102          
     angle_coeff          5           44.801828            109.032902          
     angle_coeff          6           42.090622            106.520341          
     angle_coeff          7           53.783791            109.421284          
     angle_coeff          8           48.819089            108.882482          
     angle_coeff          9           42.216565            107.506329          
     angle_coeff          10          43.871230            109.428772          
     angle_coeff          11          61.934722            110.801561          
     angle_coeff          12          42.850375            107.424685          
     angle_coeff          13          55.558879            112.806208          
     angle_coeff          14          55.088932            112.538942          
     angle_coeff          15          71.558371            108.671490          

     # Dihedral interactions
     dihedral_coeff       1          opls                  0.120045            -0.042386             0.226783            -0.014429            
     dihedral_coeff       2          opls                 -0.276135            -0.059423             0.490075            -0.026268            
     dihedral_coeff       3          opls                  0.087690            -1.260996             0.317743            -0.201641            
     dihedral_coeff       4          opls                 -0.110857             0.728641             0.235011            -0.381486            
     dihedral_coeff       5          opls                 -0.119661             0.957297             0.464158             0.377282            
     dihedral_coeff       6          opls                  1.059349             0.249642             0.402642             0.163965            
     dihedral_coeff       7          opls                  0.830716             0.308229            -0.325238             0.399454            
     dihedral_coeff       8          opls                 -2.254885            -0.774489             0.990400            -0.037702            
     dihedral_coeff       9          opls                 -0.023619             0.019421             0.375822            -0.108748            
     dihedral_coeff       10         opls                 -0.635121            -0.135602             0.369960            -0.181880            
     dihedral_coeff       11         opls                 -0.296143             2.065067             0.323441            -0.000864            
     dihedral_coeff       12         opls                 -1.873016            -1.253666             0.779811             0.106267            
