#Run DFT-D3 single point of the dimer
! wB97X-D3 def2-TZVP TIGHTSCF CHELPG PMODEL PAL8

%base "2-134_DFT_AB"

%scf
MaxIter 1000
end

* xyz 0 1
  C                      -0.374480            -9.771720            -0.426842           
  O                      -1.356860            -10.419149           -1.161084           
  H                      -2.105428            -10.409884           -0.526393           
  H                      -0.582705            -8.711593            -0.219260           
  H                      -0.288451            -10.241618           0.570621            
  H                      0.529468             -9.875784            -0.950636           
  C                      -2.659229            -6.784387            -1.729437           
  O                      -3.420022            -7.948916            -1.735076           
  H                      -2.863842            -8.505846            -1.195786           
  H                      -2.262641            -6.660623            -2.744565           
  H                      -3.269731            -5.890599            -1.571126           
  H                      -1.812656            -6.784619            -1.019134           
*

#Run DFT-D3 single point of the molecule with dimer basis set
$new_job
%base "2-134_DFT_A"
! wB97X-D3 def2-TZVP TIGHTSCF CHELPG PMODEL

%scf
MaxIter 1000
end

* xyz 0 1
  C                      -0.374480            -9.771720            -0.426842           
  O                      -1.356860            -10.419149           -1.161084           
  H                      -2.105428            -10.409884           -0.526393           
  H                      -0.582705            -8.711593            -0.219260           
  H                      -0.288451            -10.241618           0.570621            
  H                      0.529468             -9.875784            -0.950636           
  C                    : -2.659229            -6.784387            -1.729437           
  O                    : -3.420022            -7.948916            -1.735076           
  H                    : -2.863842            -8.505846            -1.195786           
  H                    : -2.262641            -6.660623            -2.744565           
  H                    : -3.269731            -5.890599            -1.571126           
  H                    : -1.812656            -6.784619            -1.019134           
*

#Run DFT-D3 single point of the particle with dimer basis set
$new_job
%base "2-134_DFT_B"
! wB97X-D3 def2-TZVP TIGHTSCF CHELPG PMODEL

%scf
MaxIter 1000
end

* xyz 0 1
  C                    : -0.374480            -9.771720            -0.426842           
  O                    : -1.356860            -10.419149           -1.161084           
  H                    : -2.105428            -10.409884           -0.526393           
  H                    : -0.582705            -8.711593            -0.219260           
  H                    : -0.288451            -10.241618           0.570621            
  H                    : 0.529468             -9.875784            -0.950636           
  C                      -2.659229            -6.784387            -1.729437           
  O                      -3.420022            -7.948916            -1.735076           
  H                      -2.863842            -8.505846            -1.195786           
  H                      -2.262641            -6.660623            -2.744565           
  H                      -3.269731            -5.890599            -1.571126           
  H                      -1.812656            -6.784619            -1.019134           
*
