     # Non-bonded interactions (pair-wise)
     pair_coeff           1          1          lj/cut/coul/long      0.003575             2.478154            
     pair_coeff           1          2          lj/cut/coul/long      0.009346             2.462163            
     pair_coeff           1          3          lj/cut/coul/long      0.007101             2.460364            
     pair_coeff           1          4          lj/cut/coul/long      0.021678             3.262640            
     pair_coeff           1          5          lj/cut/coul/long      0.015859             3.148319            
     pair_coeff           1          6          lj/cut/coul/long      0.015501             3.063180            
     pair_coeff           1          7          lj/cut/coul/long      0.018442             3.143336            
     pair_coeff           1          8          lj/cut/coul/long      0.016062             3.074069            
     pair_coeff           2          2          lj/cut/coul/long      0.024470             2.445635            
     pair_coeff           2          3          lj/cut/coul/long      0.018597             2.443774            
     pair_coeff           2          4          lj/cut/coul/long      0.054914             3.258650            
     pair_coeff           2          5          lj/cut/coul/long      0.040244             3.143546            
     pair_coeff           2          6          lj/cut/coul/long      0.039399             3.057702            
     pair_coeff           2          7          lj/cut/coul/long      0.046801             3.138525            
     pair_coeff           2          8          lj/cut/coul/long      0.040816             3.068688            
     pair_coeff           3          3          lj/cut/coul/long      0.014134             2.441906            
     pair_coeff           3          4          lj/cut/coul/long      0.041578             3.258207            
     pair_coeff           3          5          lj/cut/coul/long      0.030477             3.143017            
     pair_coeff           3          6          lj/cut/coul/long      0.029842             3.057094            
     pair_coeff           3          7          lj/cut/coul/long      0.035443             3.137991            
     pair_coeff           3          8          lj/cut/coul/long      0.030915             3.068090            
     pair_coeff           4          4          lj/cut/coul/long      0.378637             3.601095            
     pair_coeff           4          5          lj/cut/coul/long      0.250305             3.534100            
     pair_coeff           4          6          lj/cut/coul/long      0.224568             3.487968            
     pair_coeff           4          7          lj/cut/coul/long      0.289681             3.531310            
     pair_coeff           4          8          lj/cut/coul/long      0.235379             3.493684            
     pair_coeff           5          5          lj/cut/coul/long      0.167857             3.460079            
     pair_coeff           5          6          lj/cut/coul/long      0.152289             3.408562            
     pair_coeff           5          7          lj/cut/coul/long      0.194388             3.456976            
     pair_coeff           5          8          lj/cut/coul/long      0.159390             3.414971            
     pair_coeff           6          6          lj/cut/coul/long      0.139401             3.352830            
     pair_coeff           6          7          lj/cut/coul/long      0.176448             3.405217            
     pair_coeff           6          8          lj/cut/coul/long      0.145731             3.359787            
     pair_coeff           7          7          lj/cut/coul/long      0.225118             3.453860            
     pair_coeff           7          8          lj/cut/coul/long      0.184664             3.411658            
     pair_coeff           8          8          lj/cut/coul/long      0.152372             3.366672            

     # Stretching interactions
     bond_coeff           1           388.755852           1.088463            
     bond_coeff           2           377.846244           1.093155            
     bond_coeff           3           375.437494           1.093801            
     bond_coeff           4           368.488176           1.095580            
     bond_coeff           5           193.036370           1.944686            
     bond_coeff           6           314.255059           1.514245            
     bond_coeff           7           301.838612           1.525898            
     bond_coeff           8           313.531893           1.522660            

     # Bending interactions
     angle_coeff          1           40.565864            108.913909          
     angle_coeff          2           46.957499            105.982115          
     angle_coeff          3           42.392860            111.352897          
     angle_coeff          4           41.552646            107.471780          
     angle_coeff          5           43.036920            110.866477          
     angle_coeff          6           42.466319            106.618285          
     angle_coeff          7           48.776528            109.264112          
     angle_coeff          8           45.737900            109.739851          
     angle_coeff          9           43.628825            106.010166          
     angle_coeff          10          44.485363            109.047554          
     angle_coeff          11          45.160055            109.784102          
     angle_coeff          12          67.978147            112.486075          
     angle_coeff          13          55.362661            112.806944          
     angle_coeff          14          55.424781            111.286502          

     # Dihedral interactions
     dihedral_coeff       1          opls                 -0.061317             0.151532             0.231467             0.020563            
     dihedral_coeff       2          opls                 -0.049574            -0.075029             0.281171            -0.451205            
     dihedral_coeff       3          opls                  0.120045            -0.042386             0.226783            -0.014429            
     dihedral_coeff       4          opls                 -0.242816            -0.057170             0.490621            -0.030724            
     dihedral_coeff       5          opls                 -0.047270            -0.111790             0.769168             0.354425            
     dihedral_coeff       6          opls                  0.177488            -0.945387             0.346218            -0.183695            
     dihedral_coeff       7          opls                 -0.343478             0.641525             0.687654             0.562420            
     dihedral_coeff       8          opls                 -0.379108             0.579701             0.020798            -0.585850            
     dihedral_coeff       9          opls                 -0.144511            -0.896195             0.791351             0.038407            
     dihedral_coeff       10         opls                  0.319184             1.513816             0.345090            -0.055447            
