     # Non-bonded interactions (pair-wise)
     pair_coeff           1          1          lj/cut/coul/long      0.280833             3.414637            
     pair_coeff           1          2          lj/cut/coul/long      0.022870             3.111884            
     pair_coeff           1          3          lj/cut/coul/long      0.218330             3.452553            
     pair_coeff           2          2          lj/cut/coul/long      0.004193             2.477211            
     pair_coeff           2          3          lj/cut/coul/long      0.016969             3.171017            
     pair_coeff           3          3          lj/cut/coul/long      0.170438             3.488495            

     # Stretching interactions
     bond_coeff           1           230.273461           1.782879            
     bond_coeff           2           391.886591           1.087678            
     bond_coeff           3           320.755369           1.512087            

     # Bending interactions
     angle_coeff          1           51.179209            107.633515          
     angle_coeff          2           67.506152            109.442166          
     angle_coeff          3           39.967732            109.401775          
     angle_coeff          4           43.305249            111.162796          

     # Dihedral interactions
     dihedral_coeff       1          opls                  1.521344            -1.403714             1.511080            -0.320212            
     dihedral_coeff       2          opls                 -0.905171             0.152660             0.780775            -0.174440            
     dihedral_coeff       3          opls                  0.351175             0.034579             0.002366             0.136448            
