#Run DFT-D3 single point of the dimer
! wB97X-D3 def2-TZVP TIGHTSCF  CHELPG PAL8

%base "124_charges"

%scf
MaxIter 1000
end
%output
  Print[ P_Mayer ] 1
  Print[ P_NatPop ] 1
  Print[ P_Hirshfeld ] 1
  Print[ P_Mulliken ] 1
  Print [ P_Loewdin ] 1
end

* xyz 0 1
  C                      4.920933             9.997945             -8.405108           
  O                      5.655933             11.082039            -8.990999           
  H                      6.577990             10.903621            -8.961745           
  H                      5.538639             9.055643             -8.165920           
  H                      4.552381             10.346543            -7.431699           
  H                      4.067819             9.657740             -9.010809           
*
