#Run DFT-D3 single point of the dimer
! wB97X-D3 def2-TZVP TIGHTSCF  CHELPG PAL8

%base "146_charges"

%scf
MaxIter 1000
end
%output
  Print[ P_Mayer ] 1
  Print[ P_NatPop ] 1
  Print[ P_Hirshfeld ] 1
  Print[ P_Mulliken ] 1
  Print [ P_Loewdin ] 1
end

* xyz 0 1
  C                      4.220227             -7.686463            -5.175515           
  O                      4.151204             -7.274569            -3.832959           
  H                      4.124094             -7.980948            -3.165208           
  H                      5.040927             -8.455337            -5.286606           
  H                      3.338849             -8.177980            -5.549689           
  H                      4.397397             -6.906907            -5.920032           
*
