     # Non-bonded interactions (pair-wise)
     pair_coeff           1          1          lj/cut/coul/long      0.024470             2.445635            
     pair_coeff           1          2          lj/cut/coul/long      0.012785             2.469714            
     pair_coeff           1          3          lj/cut/coul/long      0.043771             3.096965            
     pair_coeff           1          4          lj/cut/coul/long      0.038794             3.122732            
     pair_coeff           1          5          lj/cut/coul/long      0.020618             2.986289            
     pair_coeff           2          2          lj/cut/coul/long      0.006702             2.492673            
     pair_coeff           2          3          lj/cut/coul/long      0.023904             3.104498            
     pair_coeff           2          4          lj/cut/coul/long      0.021200             3.129961            
     pair_coeff           2          5          lj/cut/coul/long      0.011220             2.995312            
     pair_coeff           3          3          lj/cut/coul/long      0.183705             3.402137            
     pair_coeff           3          4          lj/cut/coul/long      0.166291             3.418386            
     pair_coeff           3          5          lj/cut/coul/long      0.078298             3.335690            
     pair_coeff           4          4          lj/cut/coul/long      0.150647             3.434258            
     pair_coeff           4          5          lj/cut/coul/long      0.070626             3.353597            
     pair_coeff           5          5          lj/cut/coul/long      0.033907             3.261881            

     # Stretching interactions
     bond_coeff           1           383.894798           1.090820            
     bond_coeff           2           335.477816           1.108280            
     bond_coeff           3           319.585234           1.515997            
     bond_coeff           4           326.683917           1.438534            

     # Bending interactions
     angle_coeff          1           42.038691            107.958387          
     angle_coeff          2           30.360717            110.209793          
     angle_coeff          3           43.398155            106.911179          
     angle_coeff          4           45.891036            110.878457          
     angle_coeff          5           54.002763            107.963091          
     angle_coeff          6           79.351821            111.879549          
     angle_coeff          7           94.614335            113.630856          

     # Dihedral interactions
     dihedral_coeff       1          opls                  0.277844             0.085202             0.480035            -0.047108            
     dihedral_coeff       2          opls                 -0.275491            -0.758391            -0.099039            -0.286492            
     dihedral_coeff       3          opls                 -0.343036             0.514678             0.063622             0.560145            
     dihedral_coeff       4          opls                 -0.488233             0.507821             1.297368             1.082517            
