     # Non-bonded interactions (pair-wise)
     pair_coeff           1          1          lj/cut/coul/long      0.002217             2.560598            
     pair_coeff           1          2          lj/cut/coul/long      0.000898             2.322126            
     pair_coeff           1          3          lj/cut/coul/long      0.013756             3.183678            
     pair_coeff           1          4          lj/cut/coul/long      0.012128             3.183797            
     pair_coeff           1          5          lj/cut/coul/long      0.017948             2.779607            
     pair_coeff           1          6          lj/cut/coul/long      0.013069             2.799449            
     pair_coeff           2          2          lj/cut/coul/long      0.001000             1.779072            
     pair_coeff           2          3          lj/cut/coul/long      0.003522             3.116495            
     pair_coeff           2          4          lj/cut/coul/long      0.003105             3.116627            
     pair_coeff           2          5          lj/cut/coul/long      0.005547             2.636846            
     pair_coeff           2          6          lj/cut/coul/long      0.003977             2.662505            
     pair_coeff           3          3          lj/cut/coul/long      0.182334             3.487985            
     pair_coeff           3          4          lj/cut/coul/long      0.160772             3.488061            
     pair_coeff           3          5          lj/cut/coul/long      0.155448             3.269123            
     pair_coeff           3          6          lj/cut/coul/long      0.116210             3.278038            
     pair_coeff           4          4          lj/cut/coul/long      0.141759             3.488136            
     pair_coeff           4          5          lj/cut/coul/long      0.137057             3.269227            
     pair_coeff           4          6          lj/cut/coul/long      0.102461             3.278141            
     pair_coeff           5          5          lj/cut/coul/long      0.171189             2.936022            
     pair_coeff           5          6          lj/cut/coul/long      0.126126             2.951187            
     pair_coeff           6          6          lj/cut/coul/long      0.093011             2.965972            

     # Stretching interactions
     bond_coeff           1           383.345284           1.090940            
     bond_coeff           2           347.949566           1.102812            
     bond_coeff           3           611.563703           0.957250            
     bond_coeff           4           312.481605           1.520146            
     bond_coeff           5           373.957502           1.418941            
     bond_coeff           6           378.228948           1.404240            

     # Bending interactions
     angle_coeff          1           43.143703            107.543174          
     angle_coeff          2           43.897747            109.196017          
     angle_coeff          3           50.859072            111.703179          
     angle_coeff          4           43.178823            107.380829          
     angle_coeff          5           40.476782            110.124419          
     angle_coeff          6           54.921880            110.629456          
     angle_coeff          7           42.850375            107.424685          
     angle_coeff          8           64.723628            108.693498          
     angle_coeff          9           63.443599            112.775615          
     angle_coeff          10          59.141375            111.645729          

     # Dihedral interactions
     dihedral_coeff       1          opls                  0.972057             0.085501            -0.020715            -0.047809            
     dihedral_coeff       2          opls                 -2.437054             0.226705             1.837083             0.271004            
     dihedral_coeff       3          opls                 -1.804961             0.298421             0.409393            -0.061534            
     dihedral_coeff       4          opls                 -1.851001             0.415828            -0.903359            -0.538079            
     dihedral_coeff       5          opls                 -1.138933             0.093143             0.527796             0.144171            
     dihedral_coeff       6          opls                  1.426442            -0.659693             0.320671            -0.157381            
     dihedral_coeff       7          opls                  1.655211            -0.163936             0.999681            -0.092499            
     dihedral_coeff       8          opls                  3.779135            -2.016001             1.656550             0.244603            
