     # Non-bonded interactions (pair-wise)
     pair_coeff           1          1          lj/cut/coul/long      0.024470             2.445635            
     pair_coeff           1          2          lj/cut/coul/long      0.018597             2.443774            
     pair_coeff           1          3          lj/cut/coul/long      0.007296             2.506407            
     pair_coeff           1          4          lj/cut/coul/long      0.039399             3.057702            
     pair_coeff           1          5          lj/cut/coul/long      0.040816             3.068688            
     pair_coeff           1          6          lj/cut/coul/long      0.038720             3.145843            
     pair_coeff           1          7          lj/cut/coul/long      0.037789             3.116326            
     pair_coeff           1          8          lj/cut/coul/long      0.040700             2.765527            
     pair_coeff           2          2          lj/cut/coul/long      0.014134             2.441906            
     pair_coeff           2          3          lj/cut/coul/long      0.005542             2.504762            
     pair_coeff           2          4          lj/cut/coul/long      0.029842             3.057094            
     pair_coeff           2          5          lj/cut/coul/long      0.030915             3.068090            
     pair_coeff           2          6          lj/cut/coul/long      0.029322             3.145316            
     pair_coeff           2          7          lj/cut/coul/long      0.028619             3.115773            
     pair_coeff           2          8          lj/cut/coul/long      0.030858             2.764522            
     pair_coeff           3          3          lj/cut/coul/long      0.002217             2.560598            
     pair_coeff           3          4          lj/cut/coul/long      0.013069             3.078515            
     pair_coeff           3          5          lj/cut/coul/long      0.013550             3.089138            
     pair_coeff           3          6          lj/cut/coul/long      0.012924             3.163947            
     pair_coeff           3          7          lj/cut/coul/long      0.012588             3.135288            
     pair_coeff           3          8          lj/cut/coul/long      0.013069             2.799449            
     pair_coeff           4          4          lj/cut/coul/long      0.139401             3.352830            
     pair_coeff           4          5          lj/cut/coul/long      0.145731             3.359787            
     pair_coeff           4          6          lj/cut/coul/long      0.146768             3.410096            
     pair_coeff           4          7          lj/cut/coul/long      0.140111             3.390554            
     pair_coeff           4          8          lj/cut/coul/long      0.106577             3.188442            
     pair_coeff           5          5          lj/cut/coul/long      0.152372             3.366672            
     pair_coeff           5          6          lj/cut/coul/long      0.153616             3.416491            
     pair_coeff           5          7          lj/cut/coul/long      0.146591             3.397134            
     pair_coeff           5          8          lj/cut/coul/long      0.110934             3.197371            
     pair_coeff           6          6          lj/cut/coul/long      0.155981             3.462922            
     pair_coeff           6          7          lj/cut/coul/long      0.148447             3.444849            
     pair_coeff           6          8          lj/cut/coul/long      0.108518             3.261031            
     pair_coeff           7          7          lj/cut/coul/long      0.141420             3.426289            
     pair_coeff           7          8          lj/cut/coul/long      0.104726             3.236485            
     pair_coeff           8          8          lj/cut/coul/long      0.093011             2.965972            

     # Stretching interactions
     bond_coeff           1           377.846244           1.093155            
     bond_coeff           2           368.488176           1.095580            
     bond_coeff           3           363.956837           1.097645            
     bond_coeff           4           350.937413           1.102115            
     bond_coeff           5           313.531893           1.522660            
     bond_coeff           6           305.792905           1.522724            
     bond_coeff           7           320.253107           1.512800            
     bond_coeff           8           360.448936           1.404076            

     # Bending interactions
     angle_coeff          1           41.552646            107.471780          
     angle_coeff          2           43.036920            110.866477          
     angle_coeff          3           43.628825            106.010166          
     angle_coeff          4           45.160055            109.784102          
     angle_coeff          5           44.801828            109.032902          
     angle_coeff          6           42.090622            106.520341          
     angle_coeff          7           53.783791            109.421284          
     angle_coeff          8           50.999908            108.805838          
     angle_coeff          9           42.938131            106.964684          
     angle_coeff          10          43.718437            110.306054          
     angle_coeff          11          58.939317            109.791168          
     angle_coeff          12          55.558879            112.806208          
     angle_coeff          13          55.089394            112.735713          
     angle_coeff          14          59.141375            111.645729          
     angle_coeff          15          74.706114            109.592573          

     # Dihedral interactions
     dihedral_coeff       1          opls                  0.120045            -0.042386             0.226783            -0.014429            
     dihedral_coeff       2          opls                 -0.276135            -0.059423             0.490075            -0.026268            
     dihedral_coeff       3          opls                  0.087690            -1.260996             0.317743            -0.201641            
     dihedral_coeff       4          opls                 -0.220171             0.158828             0.285382            -0.330419            
     dihedral_coeff       5          opls                 -0.119661             0.957297             0.464158             0.377282            
     dihedral_coeff       6          opls                  0.055393            -0.138918             0.281742            -0.008881            
     dihedral_coeff       7          opls                 -0.265340             0.156619             0.435255            -0.000627            
     dihedral_coeff       8          opls                 -0.258771             0.183192             0.447488            -0.067914            
     dihedral_coeff       9          opls                 -0.124780             0.199556             0.645291            -0.170451            
     dihedral_coeff       10         opls                 -0.151088             1.533716             0.233067             0.066488            
     dihedral_coeff       11         opls                  0.325502            -0.620994             0.589553            -0.258755            
     dihedral_coeff       12         opls                 -0.198731             0.120930             1.032958            -0.360810            
