     # Non-bonded interactions (pair-wise)
     pair_coeff           1          1          lj/cut/coul/long      0.006523             2.470287            
     pair_coeff           1          2          lj/cut/coul/long      0.003397             2.570608            
     pair_coeff           1          3          lj/cut/coul/long      0.025774             3.072968            
     pair_coeff           1          4          lj/cut/coul/long      0.028474             2.984318            
     pair_coeff           1          5          lj/cut/coul/long      0.027869             2.743890            
     pair_coeff           1          6          lj/cut/coul/long      0.035028             2.620691            
     pair_coeff           2          2          lj/cut/coul/long      0.001853             2.654488            
     pair_coeff           2          3          lj/cut/coul/long      0.015888             3.109172            
     pair_coeff           2          4          lj/cut/coul/long      0.017327             3.026000            
     pair_coeff           2          5          lj/cut/coul/long      0.016115             2.805965            
     pair_coeff           2          6          lj/cut/coul/long      0.019479             2.697495            
     pair_coeff           3          3          lj/cut/coul/long      0.218126             3.366963            
     pair_coeff           3          4          lj/cut/coul/long      0.222911             3.312568            
     pair_coeff           3          5          lj/cut/coul/long      0.167192             3.183836            
     pair_coeff           3          6          lj/cut/coul/long      0.176987             3.129164            
     pair_coeff           4          4          lj/cut/coul/long      0.230228             3.253303            
     pair_coeff           4          5          lj/cut/coul/long      0.178151             3.110658            
     pair_coeff           4          6          lj/cut/coul/long      0.191733             3.048830            
     pair_coeff           5          5          lj/cut/coul/long      0.152373             2.925041            
     pair_coeff           5          6          lj/cut/coul/long      0.173931             2.838917            
     pair_coeff           6          6          lj/cut/coul/long      0.206504             2.737325            

     # Stretching interactions
     bond_coeff           1           360.575632           1.098824            
     bond_coeff           2           348.766335           1.106372            
     bond_coeff           3           347.588026           1.424143            
     bond_coeff           4           444.442516           1.336939            
     bond_coeff           5           999.872241           1.189465            

     # Bending interactions
     angle_coeff          1           40.646717            108.276775          
     angle_coeff          2           59.090508            107.953013          
     angle_coeff          3           44.200555            112.649441          
     angle_coeff          4           39.304657            124.120793          
     angle_coeff          5           67.764738            115.865608          
     angle_coeff          6           121.221268           123.161828          

     # Dihedral interactions
     dihedral_coeff       1          opls                 -0.067001            -0.113277            -0.142454             0.490191            
     dihedral_coeff       2          opls                  0.281100             5.441278            -0.368895             0.136060            
     dihedral_coeff       3          opls                 -2.056628             5.614070            -1.619254            -0.127864            
