#Run DFT-D3 single point of the dimer
! wB97X-D3 def2-TZVP TIGHTSCF CHELPG PMODEL PAL8

%base "16-187_DFT_AB"

%scf
MaxIter 1000
end

* xyz 0 1
  C                      3.794266             -8.936856            6.741659            
  O                      4.132634             -9.098652            8.080715            
  H                      4.927049             -9.696112            8.053022            
  H                      4.635598             -8.653033            6.097929            
  H                      3.378870             -9.771579            6.225077            
  H                      3.085883             -8.117320            6.674257            
  C                      0.911363             -8.439596            9.086391            
  O                      2.026675             -7.599376            9.425141            
  H                      2.761438             -8.201270            9.323782            
  H                      0.176568             -8.332073            9.896364            
  H                      0.433024             -8.229368            8.098772            
  H                      1.205850             -9.505201            9.067586            
*

#Run DFT-D3 single point of the molecule with dimer basis set
$new_job
%base "16-187_DFT_A"
! wB97X-D3 def2-TZVP TIGHTSCF CHELPG PMODEL

%scf
MaxIter 1000
end

* xyz 0 1
  C                      3.794266             -8.936856            6.741659            
  O                      4.132634             -9.098652            8.080715            
  H                      4.927049             -9.696112            8.053022            
  H                      4.635598             -8.653033            6.097929            
  H                      3.378870             -9.771579            6.225077            
  H                      3.085883             -8.117320            6.674257            
  C                    : 0.911363             -8.439596            9.086391            
  O                    : 2.026675             -7.599376            9.425141            
  H                    : 2.761438             -8.201270            9.323782            
  H                    : 0.176568             -8.332073            9.896364            
  H                    : 0.433024             -8.229368            8.098772            
  H                    : 1.205850             -9.505201            9.067586            
*

#Run DFT-D3 single point of the particle with dimer basis set
$new_job
%base "16-187_DFT_B"
! wB97X-D3 def2-TZVP TIGHTSCF CHELPG PMODEL

%scf
MaxIter 1000
end

* xyz 0 1
  C                    : 3.794266             -8.936856            6.741659            
  O                    : 4.132634             -9.098652            8.080715            
  H                    : 4.927049             -9.696112            8.053022            
  H                    : 4.635598             -8.653033            6.097929            
  H                    : 3.378870             -9.771579            6.225077            
  H                    : 3.085883             -8.117320            6.674257            
  C                      0.911363             -8.439596            9.086391            
  O                      2.026675             -7.599376            9.425141            
  H                      2.761438             -8.201270            9.323782            
  H                      0.176568             -8.332073            9.896364            
  H                      0.433024             -8.229368            8.098772            
  H                      1.205850             -9.505201            9.067586            
*
