#Run DFT-D3 single point of the dimer
! wB97X-D3 def2-TZVP TIGHTSCF  CHELPG PAL8

%base "63_charges"

%scf
MaxIter 1000
end
%output
  Print[ P_Mayer ] 1
  Print[ P_NatPop ] 1
  Print[ P_Hirshfeld ] 1
  Print[ P_Mulliken ] 1
  Print [ P_Loewdin ] 1
end

* xyz 0 1
  C                      -9.971029            10.712221            -1.637117           
  O                      -9.698350            12.034304            -1.135220           
  H                      -9.308766            11.889900            -0.273848           
  H                      -9.155551            9.983718             -1.596313           
  H                      -10.851314           10.272460            -1.114591           
  H                      -10.232360           10.832801            -2.726006           
*
