     # Non-bonded interactions (pair-wise)
     pair_coeff           1          1          lj/cut/coul/long      0.014134             2.441906            
     pair_coeff           1          2          lj/cut/coul/long      0.005542             2.504762            
     pair_coeff           1          3          lj/cut/coul/long      0.002529             2.226616            
     pair_coeff           1          4          lj/cut/coul/long      0.030692             3.066416            
     pair_coeff           1          5          lj/cut/coul/long      0.030559             3.136299            
     pair_coeff           1          6          lj/cut/coul/long      0.028619             3.115773            
     pair_coeff           1          7          lj/cut/coul/long      0.042524             2.743365            
     pair_coeff           2          2          lj/cut/coul/long      0.002217             2.560598            
     pair_coeff           2          3          lj/cut/coul/long      0.000898             2.322126            
     pair_coeff           2          4          lj/cut/coul/long      0.013450             3.087520            
     pair_coeff           2          5          lj/cut/coul/long      0.013461             3.155194            
     pair_coeff           2          6          lj/cut/coul/long      0.012588             3.135288            
     pair_coeff           2          7          lj/cut/coul/long      0.017948             2.779607            
     pair_coeff           3          3          lj/cut/coul/long      0.001000             1.779072            
     pair_coeff           3          4          lj/cut/coul/long      0.003541             3.008310            
     pair_coeff           3          5          lj/cut/coul/long      0.003472             3.084706            
     pair_coeff           3          6          lj/cut/coul/long      0.003266             3.062367            
     pair_coeff           3          7          lj/cut/coul/long      0.005547             2.636846            
     pair_coeff           4          4          lj/cut/coul/long      0.149763             3.364567            
     pair_coeff           4          5          lj/cut/coul/long      0.157623             3.409559            
     pair_coeff           4          6          lj/cut/coul/long      0.145316             3.396129            
     pair_coeff           4          7          lj/cut/coul/long      0.147615             3.185878            
     pair_coeff           5          5          lj/cut/coul/long      0.166874             3.451764            
     pair_coeff           5          6          lj/cut/coul/long      0.153583             3.439144            
     pair_coeff           5          7          lj/cut/coul/long      0.150884             3.244255            
     pair_coeff           6          6          lj/cut/coul/long      0.141420             3.426289            
     pair_coeff           6          7          lj/cut/coul/long      0.140271             3.226978            
     pair_coeff           7          7          lj/cut/coul/long      0.171189             2.936022            

     # Stretching interactions
     bond_coeff           1           365.823569           1.096853            
     bond_coeff           2           363.956837           1.097645            
     bond_coeff           3           356.736641           1.099182            
     bond_coeff           4           611.563703           0.957250            
     bond_coeff           5           306.327158           1.523007            
     bond_coeff           6           305.482370           1.517218            
     bond_coeff           7           364.232036           1.417091            

     # Bending interactions
     angle_coeff          1           43.773149            105.937020          
     angle_coeff          2           44.012669            109.306941          
     angle_coeff          3           42.090622            106.520341          
     angle_coeff          4           53.783225            109.355481          
     angle_coeff          5           48.819089            108.882482          
     angle_coeff          6           42.216565            107.506329          
     angle_coeff          7           43.871230            109.428772          
     angle_coeff          8           61.934722            110.801561          
     angle_coeff          9           42.850375            107.424685          
     angle_coeff          10          55.089394            112.735713          
     angle_coeff          11          53.310895            113.405969          
     angle_coeff          12          71.558371            108.671490          

     # Dihedral interactions
     dihedral_coeff       1          opls                  0.228771            -1.331136             0.282787            -0.201810            
     dihedral_coeff       2          opls                 -0.314717             0.836984             0.363449            -0.352742            
     dihedral_coeff       3          opls                 -0.403652             0.317076             0.297766             0.272877            
     dihedral_coeff       4          opls                  1.059349             0.249642             0.402642             0.163965            
     dihedral_coeff       5          opls                  0.830716             0.308229            -0.325238             0.399454            
     dihedral_coeff       6          opls                 -0.690272            -0.482854             0.994258            -0.050787            
     dihedral_coeff       7          opls                 -0.023619             0.019421             0.375822            -0.108748            
     dihedral_coeff       8          opls                 -0.635121            -0.135602             0.369960            -0.181880            
     dihedral_coeff       9          opls                  0.340747            -1.033850             0.784142             0.073277            
     dihedral_coeff       10         opls                 -0.174109             1.552351             0.439193            -0.115471            
