#Run DFT-D3 single point of the dimer
! wB97X-D3 def2-TZVP TIGHTSCF  CHELPG PAL8

%base "149_charges"

%scf
MaxIter 1000
end
%output
  Print[ P_Mayer ] 1
  Print[ P_NatPop ] 1
  Print[ P_Hirshfeld ] 1
  Print[ P_Mulliken ] 1
  Print [ P_Loewdin ] 1
end

* xyz 0 1
  C                      0.458252             -11.962927           2.044743            
  O                      0.408073             -10.551158           1.904166            
  H                      0.825263             -10.298181           1.069362            
  H                      0.107949             -12.287318           3.062980            
  H                      -0.154144            -12.583286           1.277080            
  H                      1.518287             -12.283146           1.852584            
*
