     # Non-bonded interactions (pair-wise)
     pair_coeff           1          1          lj/cut/coul/long      0.444465             3.584242            
     pair_coeff           1          2          lj/cut/coul/long      0.025523             3.249966            
     pair_coeff           1          3          lj/cut/coul/long      0.365499             3.528527            
     pair_coeff           1          4          lj/cut/coul/long      0.197604             3.262008            
     pair_coeff           2          2          lj/cut/coul/long      0.004059             2.486712            
     pair_coeff           2          3          lj/cut/coul/long      0.022783             3.155989            
     pair_coeff           2          4          lj/cut/coul/long      0.028900             2.531034            
     pair_coeff           3          3          lj/cut/coul/long      0.303510             3.468032            
     pair_coeff           3          4          lj/cut/coul/long      0.175651             3.169909            
     pair_coeff           4          4          lj/cut/coul/long      0.207866             2.571784            

     # Stretching interactions
     bond_coeff           1           211.856209           1.793218            
     bond_coeff           2           603.941918           1.478576            
     bond_coeff           3           387.166670           1.090335            

     # Bending interactions
     angle_coeff          1           31.871012            108.592054          
     angle_coeff          2           37.730942            111.044571          
     angle_coeff          3           72.757290            95.195195           
     angle_coeff          4           71.612650            106.740961          

     # Dihedral interactions
     dihedral_coeff       1          opls                  0.529820            -0.002543             0.608513            -0.117147            
     dihedral_coeff       2          opls                 -0.721789            -0.357967             0.285746            -0.202626            
