     # Non-bonded interactions (pair-wise)
     pair_coeff           1          1          lj/cut/coul/long      0.001000             2.379382            
     pair_coeff           1          2          lj/cut/coul/long      0.009480             3.351546            
     pair_coeff           1          3          lj/cut/coul/long      0.010403             3.091727            
     pair_coeff           2          2          lj/cut/coul/long      0.374971             3.720731            
     pair_coeff           2          3          lj/cut/coul/long      0.318968             3.581142            
     pair_coeff           3          3          lj/cut/coul/long      0.290659             3.407481            

     # Stretching interactions
     bond_coeff           1           402.818496           1.083181            
     bond_coeff           2           204.019142           1.920940            

     # Bending interactions
     angle_coeff          1           37.489037            111.605923          
     angle_coeff          2           43.969385            107.913828          
     angle_coeff          3           69.105240            113.684498          

     # Dihedral interactions
