#Run DFT-D3 single point of the dimer
! wB97X-D3 def2-TZVP TIGHTSCF  CHELPG PAL8

%base "12_charges"

%scf
MaxIter 1000
end
%output
  Print[ P_Mayer ] 1
  Print[ P_NatPop ] 1
  Print[ P_Hirshfeld ] 1
  Print[ P_Mulliken ] 1
  Print [ P_Loewdin ] 1
end

* xyz 0 1
  C                      -10.737882           -7.166619            5.578379            
  O                      -11.296889           -5.903328            5.165799            
  H                      -10.703437           -5.236791            5.380515            
  H                      -10.657267           -7.233642            6.703948            
  H                      -11.226800           -8.111518            5.093600            
  H                      -9.673293            -7.156465            5.266260            
*
