     # Non-bonded interactions (pair-wise)
     pair_coeff           1          1          lj/cut/coul/long      0.024470             2.445635            
     pair_coeff           1          2          lj/cut/coul/long      0.018597             2.443774            
     pair_coeff           1          3          lj/cut/coul/long      0.039399             3.057702            
     pair_coeff           1          4          lj/cut/coul/long      0.040816             3.068688            
     pair_coeff           1          5          lj/cut/coul/long      0.038427             2.987040            
     pair_coeff           1          6          lj/cut/coul/long      0.040522             3.067015            
     pair_coeff           1          7          lj/cut/coul/long      0.035321             3.152314            
     pair_coeff           1          8          lj/cut/coul/long      0.034251             3.136686            
     pair_coeff           1          9          lj/cut/coul/long      0.062239             2.593225            
     pair_coeff           2          2          lj/cut/coul/long      0.014134             2.441906            
     pair_coeff           2          3          lj/cut/coul/long      0.029842             3.057094            
     pair_coeff           2          4          lj/cut/coul/long      0.030915             3.068090            
     pair_coeff           2          5          lj/cut/coul/long      0.029111             2.986357            
     pair_coeff           2          6          lj/cut/coul/long      0.030692             3.066416            
     pair_coeff           2          7          lj/cut/coul/long      0.026748             3.151792            
     pair_coeff           2          8          lj/cut/coul/long      0.025938             3.136151            
     pair_coeff           2          9          lj/cut/coul/long      0.047237             2.591838            
     pair_coeff           3          3          lj/cut/coul/long      0.139401             3.352830            
     pair_coeff           3          4          lj/cut/coul/long      0.145731             3.359787            
     pair_coeff           3          5          lj/cut/coul/long      0.127788             3.309367            
     pair_coeff           3          6          lj/cut/coul/long      0.144481             3.358724            
     pair_coeff           3          7          lj/cut/coul/long      0.134516             3.414428            
     pair_coeff           3          8          lj/cut/coul/long      0.128955             3.403995            
     pair_coeff           3          9          lj/cut/coul/long      0.128283             3.111493            
     pair_coeff           4          4          lj/cut/coul/long      0.152372             3.366672            
     pair_coeff           4          5          lj/cut/coul/long      0.133457             3.316789            
     pair_coeff           4          6          lj/cut/coul/long      0.151062             3.365620            
     pair_coeff           4          7          lj/cut/coul/long      0.140805             3.420782            
     pair_coeff           4          8          lj/cut/coul/long      0.134956             3.410447            
     pair_coeff           4          9          lj/cut/coul/long      0.133177             3.121570            
     pair_coeff           5          5          lj/cut/coul/long      0.117925             3.262847            
     pair_coeff           5          6          lj/cut/coul/long      0.132332             3.315656            
     pair_coeff           5          7          lj/cut/coul/long      0.122280             3.374883            
     pair_coeff           5          8          lj/cut/coul/long      0.117382             3.363818            
     pair_coeff           5          9          lj/cut/coul/long      0.123273             3.047121            
     pair_coeff           6          6          lj/cut/coul/long      0.149763             3.364567            
     pair_coeff           6          7          lj/cut/coul/long      0.139570             3.419811            
     pair_coeff           6          8          lj/cut/coul/long      0.133777             3.409461            
     pair_coeff           6          9          lj/cut/coul/long      0.132174             3.120035            
     pair_coeff           7          7          lj/cut/coul/long      0.131208             3.470924            
     pair_coeff           7          8          lj/cut/coul/long      0.125565             3.461320            
     pair_coeff           7          9          lj/cut/coul/long      0.116945             3.198832            
     pair_coeff           8          8          lj/cut/coul/long      0.120199             3.451581            
     pair_coeff           8          9          lj/cut/coul/long      0.113114             3.184323            
     pair_coeff           9          9          lj/cut/coul/long      0.173555             2.707894            

     # Stretching interactions
     bond_coeff           1           377.846244           1.093155            
     bond_coeff           2           381.262285           1.092656            
     bond_coeff           3           368.488176           1.095580            
     bond_coeff           4           365.823569           1.096853            
     bond_coeff           5           369.231100           1.097020            
     bond_coeff           6           313.531893           1.522660            
     bond_coeff           7           308.486676           1.522841            
     bond_coeff           8           282.830696           1.512886            
     bond_coeff           9           295.747125           1.510329            
     bond_coeff           10          941.674284           1.205408            
     bond_coeff           11          308.470005           1.522439            
     bond_coeff           12          315.078235           1.517330            

     # Bending interactions
     angle_coeff          1           41.552646            107.471780          
     angle_coeff          2           43.036920            110.866477          
     angle_coeff          3           39.737939            107.011115          
     angle_coeff          4           42.466022            110.067728          
     angle_coeff          5           43.628825            106.010166          
     angle_coeff          6           45.160055            109.784102          
     angle_coeff          7           44.612128            109.127713          
     angle_coeff          8           43.773149            105.937020          
     angle_coeff          9           44.174893            109.305214          
     angle_coeff          10          44.048807            109.314041          
     angle_coeff          11          44.012669            109.306941          
     angle_coeff          12          42.110047            104.979364          
     angle_coeff          13          36.548736            107.747238          
     angle_coeff          14          41.872223            111.402490          
     angle_coeff          15          55.398823            112.803517          
     angle_coeff          16          53.310895            113.405969          
     angle_coeff          17          68.869453            113.838410          
     angle_coeff          18          53.310895            113.405969          
     angle_coeff          19          44.628029            116.130120          
     angle_coeff          20          77.373532            122.019683          
     angle_coeff          21          68.219259            121.695473          

     # Dihedral interactions
     dihedral_coeff       1          opls                  0.120045            -0.042386             0.226783            -0.014429            
     dihedral_coeff       2          opls                 -0.263438            -0.060328             0.490572            -0.025392            
     dihedral_coeff       3          opls                 -0.010635             0.077252            -0.288583             0.262145            
     dihedral_coeff       4          opls                 -0.217590             0.354074            -0.380167             0.571063            
     dihedral_coeff       5          opls                  0.108399            -0.919892             0.348516            -0.131845            
     dihedral_coeff       6          opls                 -0.369084             0.255994             0.353895            -0.085740            
     dihedral_coeff       7          opls                 -0.260122             0.645301             0.411345             0.001184            
     dihedral_coeff       8          opls                  0.136636            -1.026132             0.392753            -0.148606            
     dihedral_coeff       9          opls                 -0.299093             0.727236             0.345240            -0.023508            
     dihedral_coeff       10         opls                 -0.299023             0.727348             0.345331            -0.023781            
     dihedral_coeff       11         opls                  0.046460             0.177447             0.537314             0.033081            
     dihedral_coeff       12         opls                 -0.410624             0.390702            -0.374752            -0.505163            
     dihedral_coeff       13         opls                 -0.258416             0.642435             0.607415             0.254115            
     dihedral_coeff       14         opls                  0.201271            -0.126057            -0.985934             0.500135            
     dihedral_coeff       15         opls                 -0.128342            -0.321982             0.718212             0.533451            
     dihedral_coeff       16         opls                  0.138569             1.109876             0.354103            -0.114770            
     dihedral_coeff       17         opls                  0.176306             1.586353             0.200112            -0.063908            
     dihedral_coeff       18         opls                  0.584358            -1.456425            -0.294737            -0.265854            
     dihedral_coeff       19         opls                 -0.286542             0.211496            -1.514354             0.823590            
     dihedral_coeff       20         opls                 -0.068647             0.643054             1.188555             0.184628            
