#Run DFT-D3 single point of the dimer
! wB97X-D3 def2-TZVP TIGHTSCF  CHELPG PAL8

%base "125_charges"

%scf
MaxIter 1000
end
%output
  Print[ P_Mayer ] 1
  Print[ P_NatPop ] 1
  Print[ P_Hirshfeld ] 1
  Print[ P_Mulliken ] 1
  Print [ P_Loewdin ] 1
end

* xyz 0 1
  C                      5.468806             2.943379             1.537019            
  O                      5.962748             4.060933             0.810234            
  H                      5.305333             4.665745             0.955894            
  H                      6.066003             2.810681             2.446348            
  H                      4.399806             2.925621             1.788165            
  H                      5.614170             1.979278             0.958245            
*
