#Run DFT-D3 single point of the dimer
! wB97X-D3 def2-TZVP TIGHTSCF  CHELPG PAL8

%base "182_charges"

%scf
MaxIter 1000
end
%output
  Print[ P_Mayer ] 1
  Print[ P_NatPop ] 1
  Print[ P_Hirshfeld ] 1
  Print[ P_Mulliken ] 1
  Print [ P_Loewdin ] 1
end

* xyz 0 1
  C                      -7.421124            9.216006             -8.201468           
  O                      -7.846324            8.793922             -9.476749           
  H                      -8.588757            9.363490             -9.638633           
  H                      -6.843642            8.456834             -7.732798           
  H                      -6.800263            10.052282            -8.194818           
  H                      -8.230752            9.412780             -7.498225           
*
