     # Non-bonded interactions (pair-wise)
     pair_coeff           1          1          lj/cut/coul/long      0.024470             2.445635            
     pair_coeff           1          2          lj/cut/coul/long      0.012628             2.458116            
     pair_coeff           1          3          lj/cut/coul/long      0.033576             3.071558            
     pair_coeff           1          4          lj/cut/coul/long      0.028888             3.110904            
     pair_coeff           1          5          lj/cut/coul/long      0.048826             3.068919            
     pair_coeff           1          6          lj/cut/coul/long      0.034106             2.711126            
     pair_coeff           1          7          lj/cut/coul/long      0.064639             2.583449            
     pair_coeff           2          2          lj/cut/coul/long      0.006523             2.470287            
     pair_coeff           2          3          lj/cut/coul/long      0.017725             3.075590            
     pair_coeff           2          4          lj/cut/coul/long      0.015259             3.114688            
     pair_coeff           2          5          lj/cut/coul/long      0.025774             3.072968            
     pair_coeff           2          6          lj/cut/coul/long      0.017849             2.718625            
     pair_coeff           2          7          lj/cut/coul/long      0.033642             2.592971            
     pair_coeff           3          3          lj/cut/coul/long      0.103604             3.370283            
     pair_coeff           3          4          lj/cut/coul/long      0.092029             3.395355            
     pair_coeff           3          5          lj/cut/coul/long      0.150328             3.368625            
     pair_coeff           3          6          lj/cut/coul/long      0.071302             3.174226            
     pair_coeff           3          7          lj/cut/coul/long      0.112111             3.120379            
     pair_coeff           4          4          lj/cut/coul/long      0.081902             3.419535            
     pair_coeff           4          5          lj/cut/coul/long      0.133516             3.393758            
     pair_coeff           4          6          lj/cut/coul/long      0.062165             3.207794            
     pair_coeff           4          7          lj/cut/coul/long      0.097104             3.156844            
     pair_coeff           5          5          lj/cut/coul/long      0.218126             3.366963            
     pair_coeff           5          6          lj/cut/coul/long      0.103590             3.171987            
     pair_coeff           5          7          lj/cut/coul/long      0.162955             3.117940            
     pair_coeff           6          6          lj/cut/coul/long      0.060378             2.888018            
     pair_coeff           6          7          lj/cut/coul/long      0.103469             2.798587            
     pair_coeff           7          7          lj/cut/coul/long      0.185310             2.692064            

     # Stretching interactions
     bond_coeff           1           399.132795           1.085830            
     bond_coeff           2           360.575632           1.098824            
     bond_coeff           3           321.903261           1.502210            
     bond_coeff           4           412.714324           1.340390            
     bond_coeff           5           935.252065           1.201225            
     bond_coeff           6           341.143301           1.425728            

     # Bending interactions
     angle_coeff          1           34.984559            110.155387          
     angle_coeff          2           46.502240            109.566563          
     angle_coeff          3           40.646717            108.276775          
     angle_coeff          4           55.152212            111.151511          
     angle_coeff          5           75.588125            114.736921          
     angle_coeff          6           70.109894            112.265297          
     angle_coeff          7           48.120950            124.752204          
     angle_coeff          8           107.028467           122.901528          

     # Dihedral interactions
     dihedral_coeff       1          opls                 -0.040090             0.083937            -0.019439             0.102047            
     dihedral_coeff       2          opls                 -0.091188             0.085556            -0.064479             0.092972            
     dihedral_coeff       3          opls                  0.416295            -1.047118             0.115711            -1.047118            
     dihedral_coeff       4          opls                  0.044088             5.219286            -0.575964             0.375608            
     dihedral_coeff       5          opls                 -1.892837             5.436900            -1.001421            -0.166983            
