#Run DFT-D3 single point of the dimer
! wB97X-D3 def2-TZVP TIGHTSCF CHELPG PMODEL PAL8

%base "11-210_DFT_AB"

%scf
MaxIter 1000
end

* xyz 0 1
  C                      9.157064             9.774572             1.728110            
  O                      9.164035             8.755019             2.668343            
  H                      8.542077             8.981119             3.309272            
  H                      8.202085             9.881156             1.210295            
  H                      9.271872             10.805680            2.209505            
  H                      10.024910            9.623918             1.030928            
  C                      7.235443             9.089465             5.644530            
  O                      7.280481             9.683275             4.368788            
  H                      6.414151             9.523031             3.910607            
  H                      6.394428             9.403947             6.267391            
  H                      7.340276             7.952158             5.674665            
  H                      8.131908             9.358944             6.263459            
*

#Run DFT-D3 single point of the molecule with dimer basis set
$new_job
%base "11-210_DFT_A"
! wB97X-D3 def2-TZVP TIGHTSCF CHELPG PMODEL

%scf
MaxIter 1000
end

* xyz 0 1
  C                      9.157064             9.774572             1.728110            
  O                      9.164035             8.755019             2.668343            
  H                      8.542077             8.981119             3.309272            
  H                      8.202085             9.881156             1.210295            
  H                      9.271872             10.805680            2.209505            
  H                      10.024910            9.623918             1.030928            
  C                    : 7.235443             9.089465             5.644530            
  O                    : 7.280481             9.683275             4.368788            
  H                    : 6.414151             9.523031             3.910607            
  H                    : 6.394428             9.403947             6.267391            
  H                    : 7.340276             7.952158             5.674665            
  H                    : 8.131908             9.358944             6.263459            
*

#Run DFT-D3 single point of the particle with dimer basis set
$new_job
%base "11-210_DFT_B"
! wB97X-D3 def2-TZVP TIGHTSCF CHELPG PMODEL

%scf
MaxIter 1000
end

* xyz 0 1
  C                    : 9.157064             9.774572             1.728110            
  O                    : 9.164035             8.755019             2.668343            
  H                    : 8.542077             8.981119             3.309272            
  H                    : 8.202085             9.881156             1.210295            
  H                    : 9.271872             10.805680            2.209505            
  H                    : 10.024910            9.623918             1.030928            
  C                      7.235443             9.089465             5.644530            
  O                      7.280481             9.683275             4.368788            
  H                      6.414151             9.523031             3.910607            
  H                      6.394428             9.403947             6.267391            
  H                      7.340276             7.952158             5.674665            
  H                      8.131908             9.358944             6.263459            
*
