#Run DFT-D3 single point of the dimer
! wB97X-D3 def2-TZVP TIGHTSCF CHELPG PMODEL PAL8

%base "11-136_DFT_AB"

%scf
MaxIter 1000
end

* xyz 0 1
  C                      -3.148170            5.526536             0.250592            
  O                      -4.122243            6.461500             0.653780            
  H                      -4.972779            6.142392             0.328687            
  H                      -2.964292            5.774731             -0.804132           
  H                      -2.171916            5.713092             0.804986            
  H                      -3.408570            4.525718             0.398298            
  C                      -2.237468            6.649375             3.490973            
  O                      -2.712863            7.911409             3.373980            
  H                      -3.701736            7.908384             3.468759            
  H                      -2.968029            5.901578             3.340408            
  H                      -1.342888            6.517933             2.801996            
  H                      -1.780866            6.463601             4.453862            
*

#Run DFT-D3 single point of the molecule with dimer basis set
$new_job
%base "11-136_DFT_A"
! wB97X-D3 def2-TZVP TIGHTSCF CHELPG PMODEL

%scf
MaxIter 1000
end

* xyz 0 1
  C                      -3.148170            5.526536             0.250592            
  O                      -4.122243            6.461500             0.653780            
  H                      -4.972779            6.142392             0.328687            
  H                      -2.964292            5.774731             -0.804132           
  H                      -2.171916            5.713092             0.804986            
  H                      -3.408570            4.525718             0.398298            
  C                    : -2.237468            6.649375             3.490973            
  O                    : -2.712863            7.911409             3.373980            
  H                    : -3.701736            7.908384             3.468759            
  H                    : -2.968029            5.901578             3.340408            
  H                    : -1.342888            6.517933             2.801996            
  H                    : -1.780866            6.463601             4.453862            
*

#Run DFT-D3 single point of the particle with dimer basis set
$new_job
%base "11-136_DFT_B"
! wB97X-D3 def2-TZVP TIGHTSCF CHELPG PMODEL

%scf
MaxIter 1000
end

* xyz 0 1
  C                    : -3.148170            5.526536             0.250592            
  O                    : -4.122243            6.461500             0.653780            
  H                    : -4.972779            6.142392             0.328687            
  H                    : -2.964292            5.774731             -0.804132           
  H                    : -2.171916            5.713092             0.804986            
  H                    : -3.408570            4.525718             0.398298            
  C                      -2.237468            6.649375             3.490973            
  O                      -2.712863            7.911409             3.373980            
  H                      -3.701736            7.908384             3.468759            
  H                      -2.968029            5.901578             3.340408            
  H                      -1.342888            6.517933             2.801996            
  H                      -1.780866            6.463601             4.453862            
*
