     # Non-bonded interactions (pair-wise)
     pair_coeff           1          1          lj/cut/coul/long      0.006702             2.492673            
     pair_coeff           1          2          lj/cut/coul/long      0.003842             2.527776            
     pair_coeff           1          3          lj/cut/coul/long      0.002572             2.447979            
     pair_coeff           1          4          lj/cut/coul/long      0.001663             2.267147            
     pair_coeff           1          5          lj/cut/coul/long      0.021734             3.192791            
     pair_coeff           1          6          lj/cut/coul/long      0.021689             3.177801            
     pair_coeff           1          7          lj/cut/coul/long      0.027645             2.928182            
     pair_coeff           1          8          lj/cut/coul/long      0.030161             2.758107            
     pair_coeff           2          2          lj/cut/coul/long      0.002217             2.560598            
     pair_coeff           2          3          lj/cut/coul/long      0.001461             2.486256            
     pair_coeff           2          4          lj/cut/coul/long      0.000898             2.322126            
     pair_coeff           2          5          lj/cut/coul/long      0.013287             3.203251            
     pair_coeff           2          6          lj/cut/coul/long      0.013252             3.188509            
     pair_coeff           2          7          lj/cut/coul/long      0.016680             2.944216            
     pair_coeff           2          8          lj/cut/coul/long      0.017948             2.779607            
     pair_coeff           3          3          lj/cut/coul/long      0.001000             2.398789            
     pair_coeff           3          4          lj/cut/coul/long      0.000699             2.192618            
     pair_coeff           3          5          lj/cut/coul/long      0.007661             3.180272            
     pair_coeff           3          6          lj/cut/coul/long      0.007650             3.164982            
     pair_coeff           3          7          lj/cut/coul/long      0.009904             2.908758            
     pair_coeff           3          8          lj/cut/coul/long      0.011000             2.731715            
     pair_coeff           4          4          lj/cut/coul/long      0.001000             1.779072            
     pair_coeff           4          5          lj/cut/coul/long      0.003385             3.138225            
     pair_coeff           4          6          lj/cut/coul/long      0.003388             3.121866            
     pair_coeff           4          7          lj/cut/coul/long      0.004650             2.841420            
     pair_coeff           4          8          lj/cut/coul/long      0.005547             2.636846            
     pair_coeff           5          5          lj/cut/coul/long      0.175499             3.512727            
     pair_coeff           5          6          lj/cut/coul/long      0.172976             3.503476            
     pair_coeff           5          7          lj/cut/coul/long      0.172134             3.364218            
     pair_coeff           5          8          lj/cut/coul/long      0.150952             3.286307            
     pair_coeff           6          6          lj/cut/coul/long      0.170533             3.494102            
     pair_coeff           6          7          lj/cut/coul/long      0.170463             3.352715            
     pair_coeff           6          8          lj/cut/coul/long      0.149957             3.273357            
     pair_coeff           7          7          lj/cut/coul/long      0.185030             3.173168            
     pair_coeff           7          8          lj/cut/coul/long      0.173250             3.066012            
     pair_coeff           8          8          lj/cut/coul/long      0.171189             2.936022            

     # Stretching interactions
     bond_coeff           1           379.309760           1.092651            
     bond_coeff           2           356.533192           1.099346            
     bond_coeff           3           509.552153           1.010306            
     bond_coeff           4           611.563703           0.957250            
     bond_coeff           5           314.194529           1.527280            
     bond_coeff           6           367.510261           1.425939            
     bond_coeff           7           352.658348           1.467902            

     # Bending interactions
     angle_coeff          1           42.912906            106.908651          
     angle_coeff          2           45.382656            108.285152          
     angle_coeff          3           49.686152            107.845487          
     angle_coeff          4           41.908993            107.668180          
     angle_coeff          5           45.346956            108.442230          
     angle_coeff          6           58.171497            111.109264          
     angle_coeff          7           44.566367            107.474783          
     angle_coeff          8           31.853028            109.616897          
     angle_coeff          9           49.497740            108.715786          
     angle_coeff          10          67.215355            111.169337          
     angle_coeff          11          70.045998            109.398496          

     # Dihedral interactions
     dihedral_coeff       1          opls                  3.705925             0.184719             1.327080             0.236418            
     dihedral_coeff       2          opls                 -7.541295            -0.722983             0.946846            -0.242048            
     dihedral_coeff       3          opls                 -1.507416             0.369026             0.358554             0.004769            
     dihedral_coeff       4          opls                 -5.021285             1.910613            -0.672160             0.206231            
     dihedral_coeff       5          opls                 -3.029610             0.363421             0.403412            -0.022144            
     dihedral_coeff       6          opls                  2.651755            -1.341305             0.182623             0.069561            
     dihedral_coeff       7          opls                  5.698233            -1.076361             0.371757            -0.071210            
     dihedral_coeff       8          opls                  9.686738            -4.351332            -1.145277            -0.570107            
