     # Non-bonded interactions (pair-wise)
     pair_coeff           1          1          lj/cut/coul/long      0.006702             2.492673            
     pair_coeff           1          2          lj/cut/coul/long      0.003842             2.527776            
     pair_coeff           1          3          lj/cut/coul/long      0.002586             2.474020            
     pair_coeff           1          4          lj/cut/coul/long      0.001663             2.267147            
     pair_coeff           1          5          lj/cut/coul/long      0.021734             3.192791            
     pair_coeff           1          6          lj/cut/coul/long      0.023032             3.111410            
     pair_coeff           1          7          lj/cut/coul/long      0.028984             2.835405            
     pair_coeff           1          8          lj/cut/coul/long      0.030161             2.758107            
     pair_coeff           2          2          lj/cut/coul/long      0.002217             2.560598            
     pair_coeff           2          3          lj/cut/coul/long      0.001477             2.510409            
     pair_coeff           2          4          lj/cut/coul/long      0.000898             2.322126            
     pair_coeff           2          5          lj/cut/coul/long      0.013287             3.203251            
     pair_coeff           2          6          lj/cut/coul/long      0.014035             3.123296            
     pair_coeff           2          7          lj/cut/coul/long      0.017368             2.854185            
     pair_coeff           2          8          lj/cut/coul/long      0.017948             2.779607            
     pair_coeff           3          3          lj/cut/coul/long      0.001000             2.454636            
     pair_coeff           3          4          lj/cut/coul/long      0.000665             2.236730            
     pair_coeff           3          5          lj/cut/coul/long      0.008098             3.187458            
     pair_coeff           3          6          lj/cut/coul/long      0.008596             3.105338            
     pair_coeff           3          7          lj/cut/coul/long      0.010913             2.825709            
     pair_coeff           3          8          lj/cut/coul/long      0.011399             2.746956            
     pair_coeff           4          4          lj/cut/coul/long      0.001000             1.779072            
     pair_coeff           4          5          lj/cut/coul/long      0.003385             3.138225            
     pair_coeff           4          6          lj/cut/coul/long      0.003654             3.048858            
     pair_coeff           4          7          lj/cut/coul/long      0.005090             2.731715            
     pair_coeff           4          8          lj/cut/coul/long      0.005547             2.636846            
     pair_coeff           5          5          lj/cut/coul/long      0.175499             3.512727            
     pair_coeff           5          6          lj/cut/coul/long      0.173312             3.463672            
     pair_coeff           5          7          lj/cut/coul/long      0.161070             3.319962            
     pair_coeff           5          8          lj/cut/coul/long      0.150952             3.286307            
     pair_coeff           6          6          lj/cut/coul/long      0.172489             3.410875            
     pair_coeff           6          7          lj/cut/coul/long      0.164915             3.253946            
     pair_coeff           6          8          lj/cut/coul/long      0.155813             3.216611            
     pair_coeff           7          7          lj/cut/coul/long      0.176497             3.046432            
     pair_coeff           7          8          lj/cut/coul/long      0.172762             2.993770            
     pair_coeff           8          8          lj/cut/coul/long      0.171189             2.936022            

     # Stretching interactions
     bond_coeff           1           366.137580           1.096784            
     bond_coeff           2           356.533192           1.099346            
     bond_coeff           3           495.989038           1.013118            
     bond_coeff           4           611.563703           0.957250            
     bond_coeff           5           306.983059           1.527777            
     bond_coeff           6           367.510261           1.425939            
     bond_coeff           7           354.126843           1.456104            

     # Bending interactions
     angle_coeff          1           41.337709            106.627051          
     angle_coeff          2           45.784530            109.416607          
     angle_coeff          3           71.131233            112.642506          
     angle_coeff          4           41.908993            107.668180          
     angle_coeff          5           41.090151            109.074246          
     angle_coeff          6           58.171497            111.109264          
     angle_coeff          7           47.277395            109.437649          
     angle_coeff          8           49.497740            108.715786          
     angle_coeff          9           60.610166            111.474509          
     angle_coeff          10          66.654034            109.223147          
     angle_coeff          11          55.179050            113.070721          

     # Dihedral interactions
     dihedral_coeff       1          opls                  2.070976            -2.101968             3.495141            -1.731686            
     dihedral_coeff       2          opls                 -4.524867             3.885770            -0.483565             1.473170            
     dihedral_coeff       3          opls                 -1.172150            -0.084219             0.048480            -0.799944            
     dihedral_coeff       4          opls                 -1.460503             1.187723             0.915132             0.071366            
     dihedral_coeff       5          opls                 -3.028528             0.425990            -1.286926            -0.136922            
     dihedral_coeff       6          opls                 -3.029610             0.363421             0.403412            -0.022144            
     dihedral_coeff       7          opls                  2.167758            -0.875670            -0.015602            -0.672856            
     dihedral_coeff       8          opls                  3.248553            -0.912842             0.378306            -0.081291            
     dihedral_coeff       9          opls                  2.727142            -0.094592             0.563032             0.075156            
     dihedral_coeff       10         opls                  7.615973             1.317205            -5.388885             3.622504            
