#Run DFT geometry optimization
! wB97X-D3 def2-TZVP TIGHTSCF Grid5 FinalGrid6 Opt CHELPG PAL4

%base "7_geo_opt"
%geom MaxIter 500
end

%geom
  Constraints
    { B 0 1 C }
  end
end


* xyz 0 1
  C                    3.011504             -1.180890            0.598531            
  O                    4.394477             -1.128058            0.874268            
  H                    4.772000             -0.379029            0.412454            
  H                    2.806630             -1.318957            -0.469311           
  H                    2.611828             -2.040257            1.135937            
  H                    2.484953             -0.284484            0.945698            
*
