     # Non-bonded interactions (pair-wise)
     pair_coeff           1          1          lj/cut/coul/long      0.024470             2.445635            
     pair_coeff           1          2          lj/cut/coul/long      0.033576             3.071558            
     pair_coeff           1          3          lj/cut/coul/long      0.028888             3.110904            
     pair_coeff           1          4          lj/cut/coul/long      0.002480             3.724937            
     pair_coeff           1          5          lj/cut/coul/long      0.064639             2.583449            
     pair_coeff           2          2          lj/cut/coul/long      0.103604             3.370283            
     pair_coeff           2          3          lj/cut/coul/long      0.092029             3.395355            
     pair_coeff           2          4          lj/cut/coul/long      0.010819             3.857926            
     pair_coeff           2          5          lj/cut/coul/long      0.112111             3.120379            
     pair_coeff           3          3          lj/cut/coul/long      0.081902             3.419535            
     pair_coeff           3          4          lj/cut/coul/long      0.009848             3.870814            
     pair_coeff           3          5          lj/cut/coul/long      0.097104             3.156844            
     pair_coeff           4          4          lj/cut/coul/long      0.001634             4.152714            
     pair_coeff           4          5          lj/cut/coul/long      0.008826             3.744058            
     pair_coeff           5          5          lj/cut/coul/long      0.185310             2.692064            

     # Stretching interactions
     bond_coeff           1           399.132795           1.085830            
     bond_coeff           2           321.903261           1.502210            
     bond_coeff           3           328.924210           1.384853            
     bond_coeff           4           935.252065           1.201225            

     # Bending interactions
     angle_coeff          1           34.984559            110.155387          
     angle_coeff          2           46.502240            109.566563          
     angle_coeff          3           65.347727            120.528240          
     angle_coeff          4           70.635947            112.248687          
     angle_coeff          5           48.120950            124.752204          
     angle_coeff          6           107.028429           122.916489          

     # Dihedral interactions
     dihedral_coeff       1          opls                 -0.045336             0.129103            -0.017602             0.100258            
     dihedral_coeff       2          opls                 -0.091188             0.085556            -0.064479             0.092972            
     dihedral_coeff       3          opls                  2.437465             1.699130             0.570796             1.010922            
     dihedral_coeff       4          opls                 -3.107668             1.229090            -0.134228            -0.966573            
