     # Non-bonded interactions (pair-wise)
     pair_coeff           1          1          lj/cut/coul/long      0.191095             3.530078            
     pair_coeff           1          2          lj/cut/coul/long      0.039446             3.204649            
     pair_coeff           1          3          lj/cut/coul/long      0.197613             3.408113            
     pair_coeff           1          4          lj/cut/coul/long      0.155249             3.475594            
     pair_coeff           2          2          lj/cut/coul/long      0.021355             2.477342            
     pair_coeff           2          3          lj/cut/coul/long      0.050035             2.990374            
     pair_coeff           2          4          lj/cut/coul/long      0.034718             3.113364            
     pair_coeff           3          3          lj/cut/coul/long      0.216284             3.259389            
     pair_coeff           3          4          lj/cut/coul/long      0.164320             3.342537            
     pair_coeff           4          4          lj/cut/coul/long      0.127346             3.416472            

     # Stretching interactions
     bond_coeff           1           265.859936           1.721001            
     bond_coeff           2           415.151877           1.080702            
     bond_coeff           3           710.616037           1.319183            

     # Bending interactions
     angle_coeff          1           78.065337            114.275109          
     angle_coeff          2           47.861017            122.735572          
     angle_coeff          3           28.415607            119.300655          
     angle_coeff          4           37.203402            120.346556          

     # Dihedral interactions
     dihedral_coeff       1          harmonic              5.808787            -1                    2                   
