#Run DFT-D3 single point of the dimer
! wB97X-D3 def2-TZVP TIGHTSCF  CHELPG PAL8

%base "141_charges"

%scf
MaxIter 1000
end
%output
  Print[ P_Mayer ] 1
  Print[ P_NatPop ] 1
  Print[ P_Hirshfeld ] 1
  Print[ P_Mulliken ] 1
  Print [ P_Loewdin ] 1
end

* xyz 0 1
  C                      2.144737             -1.328025            -7.359754           
  O                      1.662647             -2.566735            -7.799575           
  H                      1.120256             -2.920308            -7.102677           
  H                      1.464912             -0.506210            -7.409826           
  H                      2.408947             -1.353031            -6.285190           
  H                      3.048631             -0.930215            -7.883937           
*
