     # Non-bonded interactions (pair-wise)
     pair_coeff           1          1          lj/cut/coul/long      0.024470             2.445635            
     pair_coeff           1          2          lj/cut/coul/long      0.007296             2.506407            
     pair_coeff           1          3          lj/cut/coul/long      0.003317             2.229575            
     pair_coeff           1          4          lj/cut/coul/long      0.043204             3.119327            
     pair_coeff           1          5          lj/cut/coul/long      0.037587             3.139691            
     pair_coeff           1          6          lj/cut/coul/long      0.056081             2.744410            
     pair_coeff           2          2          lj/cut/coul/long      0.002217             2.560598            
     pair_coeff           2          3          lj/cut/coul/long      0.000898             2.322126            
     pair_coeff           2          4          lj/cut/coul/long      0.014395             3.138200            
     pair_coeff           2          5          lj/cut/coul/long      0.012541             3.157970            
     pair_coeff           2          6          lj/cut/coul/long      0.017948             2.779607            
     pair_coeff           3          3          lj/cut/coul/long      0.001000             1.779072            
     pair_coeff           3          4          lj/cut/coul/long      0.003731             3.065641            
     pair_coeff           3          5          lj/cut/coul/long      0.003233             3.087812            
     pair_coeff           3          6          lj/cut/coul/long      0.005547             2.636846            
     pair_coeff           4          4          lj/cut/coul/long      0.185790             3.430024            
     pair_coeff           4          5          lj/cut/coul/long      0.164369             3.442781            
     pair_coeff           4          6          lj/cut/coul/long      0.160549             3.229500            
     pair_coeff           5          5          lj/cut/coul/long      0.145488             3.455305            
     pair_coeff           5          6          lj/cut/coul/long      0.140689             3.246671            
     pair_coeff           6          6          lj/cut/coul/long      0.171189             2.936022            

     # Stretching interactions
     bond_coeff           1           384.226258           1.090916            
     bond_coeff           2           359.993259           1.097994            
     bond_coeff           3           611.563703           0.957250            
     bond_coeff           4           328.534954           1.510262            
     bond_coeff           5           351.835171           1.416892            

     # Bending interactions
     angle_coeff          1           40.182835            108.640655          
     angle_coeff          2           43.323310            110.593107          
     angle_coeff          3           42.055330            107.587396          
     angle_coeff          4           44.244690            110.045434          
     angle_coeff          5           62.563838            110.551356          
     angle_coeff          6           49.497692            108.771225          
     angle_coeff          7           72.067903            107.873531          

     # Dihedral interactions
     dihedral_coeff       1          opls                  0.330483             0.120098             0.318977             0.038830            
     dihedral_coeff       2          opls                 -0.798980            -0.457538             0.417943            -0.068344            
     dihedral_coeff       3          opls                  0.402985            -0.042100             0.364691            -0.091133            
     dihedral_coeff       4          opls                 -0.907525            -0.034289             0.412657            -0.153486            
