     # Non-bonded interactions (pair-wise)
     pair_coeff           1          1          lj/cut/coul/long      0.024470             2.445635            
     pair_coeff           1          2          lj/cut/coul/long      0.013733             2.436158            
     pair_coeff           1          3          lj/cut/coul/long      0.041644             3.018865            
     pair_coeff           1          4          lj/cut/coul/long      0.038138             3.081187            
     pair_coeff           2          2          lj/cut/coul/long      0.007711             2.426493            
     pair_coeff           2          3          lj/cut/coul/long      0.022982             3.015581            
     pair_coeff           2          4          lj/cut/coul/long      0.021031             3.078223            
     pair_coeff           3          3          lj/cut/coul/long      0.145994             3.303587            
     pair_coeff           3          4          lj/cut/coul/long      0.140473             3.344142            
     pair_coeff           4          4          lj/cut/coul/long      0.135838             3.382377            

     # Stretching interactions
     bond_coeff           1           379.582319           1.092452            
     bond_coeff           2           364.546269           1.096493            
     bond_coeff           3           305.201270           1.524118            

     # Bending interactions
     angle_coeff          1           41.062153            107.765742          
     angle_coeff          2           44.103451            111.318281          
     angle_coeff          3           47.108421            108.130658          
     angle_coeff          4           59.080369            110.663440          

     # Dihedral interactions
     dihedral_coeff       1          opls                  0.286633            -0.139844             0.431488            -0.064225            
     dihedral_coeff       2          opls                 -0.207095            -0.002711             0.331348            -0.040755            
