#Run DFT-D3 single point of the dimer
! wB97X-D3 def2-TZVP TIGHTSCF  CHELPG PAL8

%base "139_charges"

%scf
MaxIter 1000
end
%output
  Print[ P_Mayer ] 1
  Print[ P_NatPop ] 1
  Print[ P_Hirshfeld ] 1
  Print[ P_Mulliken ] 1
  Print [ P_Loewdin ] 1
end

* xyz 0 1
  C                      -0.924680            -4.427317            -0.750055           
  O                      0.429760             -4.168611            -1.123283           
  H                      1.133390             -4.645305            -0.624123           
  H                      -1.646051            -3.812803            -1.363401           
  H                      -1.208949            -5.459957            -1.110140           
  H                      -1.215006            -4.244556            0.305782            
*
