#Run DFT-D3 single point of the dimer
! wB97X-D3 def2-TZVP TIGHTSCF CHELPG PMODEL PAL8

%base "1-103_DFT_AB"

%scf
MaxIter 1000
end

* xyz 0 1
  C                      -0.021919            8.009453             2.783988            
  O                      -0.528219            7.199774             3.833651            
  H                      0.125578             6.504699             4.084652            
  H                      0.915588             8.444604             3.152632            
  H                      0.145282             7.447361             1.830952            
  H                      -0.773289            8.872872             2.476492            
  C                      -1.678072            3.140757             3.480192            
  O                      -3.000675            3.465647             3.827159            
  H                      -3.099264            3.477182             4.782687            
  H                      -1.256777            2.459914             4.286220            
  H                      -1.801124            2.478070             2.563600            
  H                      -1.023869            4.026297             3.345611            
*

#Run DFT-D3 single point of the molecule with dimer basis set
$new_job
%base "1-103_DFT_A"
! wB97X-D3 def2-TZVP TIGHTSCF CHELPG PMODEL

%scf
MaxIter 1000
end

* xyz 0 1
  C                      -0.021919            8.009453             2.783988            
  O                      -0.528219            7.199774             3.833651            
  H                      0.125578             6.504699             4.084652            
  H                      0.915588             8.444604             3.152632            
  H                      0.145282             7.447361             1.830952            
  H                      -0.773289            8.872872             2.476492            
  C                    : -1.678072            3.140757             3.480192            
  O                    : -3.000675            3.465647             3.827159            
  H                    : -3.099264            3.477182             4.782687            
  H                    : -1.256777            2.459914             4.286220            
  H                    : -1.801124            2.478070             2.563600            
  H                    : -1.023869            4.026297             3.345611            
*

#Run DFT-D3 single point of the particle with dimer basis set
$new_job
%base "1-103_DFT_B"
! wB97X-D3 def2-TZVP TIGHTSCF CHELPG PMODEL

%scf
MaxIter 1000
end

* xyz 0 1
  C                    : -0.021919            8.009453             2.783988            
  O                    : -0.528219            7.199774             3.833651            
  H                    : 0.125578             6.504699             4.084652            
  H                    : 0.915588             8.444604             3.152632            
  H                    : 0.145282             7.447361             1.830952            
  H                    : -0.773289            8.872872             2.476492            
  C                      -1.678072            3.140757             3.480192            
  O                      -3.000675            3.465647             3.827159            
  H                      -3.099264            3.477182             4.782687            
  H                      -1.256777            2.459914             4.286220            
  H                      -1.801124            2.478070             2.563600            
  H                      -1.023869            4.026297             3.345611            
*
