#Run DFT-D3 single point of the dimer
! wB97X-D3 def2-TZVP TIGHTSCF CHELPG PMODEL PAL8

%base "11-16_DFT_AB"

%scf
MaxIter 1000
end

* xyz 0 1
  C                      -9.588072            -1.444471            5.461368            
  O                      -10.403230           -2.633637            5.367968            
  H                      -11.278415           -2.425012            5.028035            
  H                      -9.139766            -1.218325            4.490122            
  H                      -10.162974           -0.559693            5.727943            
  H                      -8.740249            -1.545357            6.116138            
  C                      -6.180716            -0.682254            7.171741            
  O                      -6.499451            -2.054292            7.213974            
  H                      -5.640469            -2.484737            7.183619            
  H                      -6.759320            -0.134508            6.378333            
  H                      -6.352808            -0.289618            8.170732            
  H                      -5.133995            -0.500338            6.914693            
*

#Run DFT-D3 single point of the molecule with dimer basis set
$new_job
%base "11-16_DFT_A"
! wB97X-D3 def2-TZVP TIGHTSCF CHELPG PMODEL

%scf
MaxIter 1000
end

* xyz 0 1
  C                      -9.588072            -1.444471            5.461368            
  O                      -10.403230           -2.633637            5.367968            
  H                      -11.278415           -2.425012            5.028035            
  H                      -9.139766            -1.218325            4.490122            
  H                      -10.162974           -0.559693            5.727943            
  H                      -8.740249            -1.545357            6.116138            
  C                    : -6.180716            -0.682254            7.171741            
  O                    : -6.499451            -2.054292            7.213974            
  H                    : -5.640469            -2.484737            7.183619            
  H                    : -6.759320            -0.134508            6.378333            
  H                    : -6.352808            -0.289618            8.170732            
  H                    : -5.133995            -0.500338            6.914693            
*

#Run DFT-D3 single point of the particle with dimer basis set
$new_job
%base "11-16_DFT_B"
! wB97X-D3 def2-TZVP TIGHTSCF CHELPG PMODEL

%scf
MaxIter 1000
end

* xyz 0 1
  C                    : -9.588072            -1.444471            5.461368            
  O                    : -10.403230           -2.633637            5.367968            
  H                    : -11.278415           -2.425012            5.028035            
  H                    : -9.139766            -1.218325            4.490122            
  H                    : -10.162974           -0.559693            5.727943            
  H                    : -8.740249            -1.545357            6.116138            
  C                      -6.180716            -0.682254            7.171741            
  O                      -6.499451            -2.054292            7.213974            
  H                      -5.640469            -2.484737            7.183619            
  H                      -6.759320            -0.134508            6.378333            
  H                      -6.352808            -0.289618            8.170732            
  H                      -5.133995            -0.500338            6.914693            
*
