#Run DFT-D3 single point of the dimer
! wB97X-D3 def2-TZVP TIGHTSCF  CHELPG PAL8

%base "172_charges"

%scf
MaxIter 1000
end
%output
  Print[ P_Mayer ] 1
  Print[ P_NatPop ] 1
  Print[ P_Hirshfeld ] 1
  Print[ P_Mulliken ] 1
  Print [ P_Loewdin ] 1
end

* xyz 0 1
  C                      1.192799             -4.195803            -0.602249           
  O                      1.666724             -4.088809            0.709919            
  H                      2.433013             -4.743410            0.702376            
  H                      0.465404             -3.426715            -0.760269           
  H                      1.994914             -4.012707            -1.327426           
  H                      0.776439             -5.122151            -0.877539           
*
