     # Non-bonded interactions (pair-wise)
     pair_coeff           1          1          lj/cut/coul/long      0.008210             2.465609            
     pair_coeff           1          2          lj/cut/coul/long      0.003633             2.642819            
     pair_coeff           1          3          lj/cut/coul/long      0.002865             2.460153            
     pair_coeff           1          4          lj/cut/coul/long      0.029444             3.081346            
     pair_coeff           1          5          lj/cut/coul/long      0.031007             2.975773            
     pair_coeff           1          6          lj/cut/coul/long      0.025240             3.059844            
     pair_coeff           1          7          lj/cut/coul/long      0.047015             2.467084            
     pair_coeff           2          2          lj/cut/coul/long      0.001819             2.775138            
     pair_coeff           2          3          lj/cut/coul/long      0.001262             2.638970            
     pair_coeff           2          4          lj/cut/coul/long      0.017402             3.147342            
     pair_coeff           2          5          lj/cut/coul/long      0.017831             3.053421            
     pair_coeff           2          6          lj/cut/coul/long      0.014841             3.128043            
     pair_coeff           2          7          lj/cut/coul/long      0.020832             2.643862            
     pair_coeff           3          3          lj/cut/coul/long      0.001000             2.454636            
     pair_coeff           3          4          lj/cut/coul/long      0.010175             3.079564            
     pair_coeff           3          5          lj/cut/coul/long      0.010723             2.973651            
     pair_coeff           3          6          lj/cut/coul/long      0.008723             3.057998            
     pair_coeff           3          7          lj/cut/coul/long      0.016406             2.461645            
     pair_coeff           4          4          lj/cut/coul/long      0.231539             3.378537            
     pair_coeff           4          5          lj/cut/coul/long      0.221913             3.314400            
     pair_coeff           4          6          lj/cut/coul/long      0.194928             3.365069            
     pair_coeff           4          7          lj/cut/coul/long      0.169060             3.081831            
     pair_coeff           5          5          lj/cut/coul/long      0.215894             3.243382            
     pair_coeff           5          6          lj/cut/coul/long      0.187378             3.299559            
     pair_coeff           5          7          lj/cut/coul/long      0.177994             2.976350            
     pair_coeff           6          6          lj/cut/coul/long      0.164203             3.351326            
     pair_coeff           6          7          lj/cut/coul/long      0.144915             3.060346            
     pair_coeff           7          7          lj/cut/coul/long      0.269237             2.468555            

     # Stretching interactions
     bond_coeff           1           348.276023           1.102522            
     bond_coeff           2           344.641711           1.107326            
     bond_coeff           3           534.546003           1.005972            
     bond_coeff           4           384.039025           1.447024            
     bond_coeff           5           505.127600           1.351287            
     bond_coeff           6           899.545736           1.208169            

     # Bending interactions
     angle_coeff          1           41.302882            107.560396          
     angle_coeff          2           48.298489            109.995077          
     angle_coeff          3           38.253154            112.344566          
     angle_coeff          4           46.661240            122.632410          
     angle_coeff          5           34.296382            119.865106          
     angle_coeff          6           32.067471            116.171200          
     angle_coeff          7           49.809753            123.732166          
     angle_coeff          8           83.100437            125.056100          

     # Dihedral interactions
     dihedral_coeff       1          opls                  0.108807            -0.374944             0.304341            -0.061132            
     dihedral_coeff       2          opls                  0.127483            -0.386266            -0.034706            -0.178388            
     dihedral_coeff       3          opls                  0.470172             0.337995             0.751286             0.971770            
     dihedral_coeff       4          opls                  0.486242             4.820404             1.397333             0.295500            
     dihedral_coeff       5          opls                 -1.382739             1.101713            -0.009223             3.157796            
     dihedral_coeff       6          opls                 -1.934564             4.468912             0.272261            -0.887750            
