#Run DFT-D3 single point of the dimer
! wB97X-D3 def2-TZVP TIGHTSCF  CHELPG PAL8

%base "77_charges"

%scf
MaxIter 1000
end
%output
  Print[ P_Mayer ] 1
  Print[ P_NatPop ] 1
  Print[ P_Hirshfeld ] 1
  Print[ P_Mulliken ] 1
  Print [ P_Loewdin ] 1
end

* xyz 0 1
  C                      5.319531             -2.728616            -6.820554           
  O                      5.289630             -3.765190            -7.709131           
  H                      5.229326             -4.526388            -7.188563           
  H                      6.163591             -2.842064            -6.126778           
  H                      5.402702             -1.739492            -7.280825           
  H                      4.475132             -2.769805            -6.194841           
*
