#Run DFT-D3 single point of the dimer
! wB97X-D3 def2-TZVP TIGHTSCF  CHELPG PAL8

%base "155_charges"

%scf
MaxIter 1000
end
%output
  Print[ P_Mayer ] 1
  Print[ P_NatPop ] 1
  Print[ P_Hirshfeld ] 1
  Print[ P_Mulliken ] 1
  Print [ P_Loewdin ] 1
end

* xyz 0 1
  C                      3.120161             1.252736             -2.835892           
  O                      4.052023             0.991522             -1.740066           
  H                      3.891793             1.582260             -1.027765           
  H                      3.470497             2.020385             -3.573038           
  H                      2.874990             0.282014             -3.352896           
  H                      2.123720             1.623176             -2.408365           
*
