#Run DFT geometry optimization
! wB97X-D3 def2-TZVP TIGHTSCF Grid5 FinalGrid6 Opt CHELPG PAL4

%base "3_geo_opt"
%geom MaxIter 500
end

%geom
  Constraints
    { B 0 1 C }
  end
end


* xyz 0 1
  C                    3.011112             -1.180905            0.598453            
  O                    4.394869             -1.128043            0.874347            
  H                    4.772392             -0.379014            0.412532            
  H                    2.806238             -1.318972            -0.469389           
  H                    2.611436             -2.040272            1.135859            
  H                    2.484561             -0.284499            0.945620            
*
