#Run DFT-D3 single point of the dimer
! wB97X-D3 def2-TZVP TIGHTSCF  CHELPG PAL8

%base "98_charges"

%scf
MaxIter 1000
end
%output
  Print[ P_Mayer ] 1
  Print[ P_NatPop ] 1
  Print[ P_Hirshfeld ] 1
  Print[ P_Mulliken ] 1
  Print [ P_Loewdin ] 1
end

* xyz 0 1
  C                      -11.284682           -6.517864            10.674109           
  O                      -10.787645           -6.178029            9.384619            
  H                      -9.912990            -6.622411            9.379816            
  H                      -10.889296           -5.775538            11.418939           
  H                      -12.425488           -6.396045            10.754429           
  H                      -11.028370           -7.533740            10.897922           
*
