#Run DFT geometry optimization
! wB97X-D3 def2-TZVP TIGHTSCF Grid5 FinalGrid6 Opt CHELPG PAL4

%base "9_geo_opt"
%geom MaxIter 500
end

%geom
  Constraints
    { B 2 1 C }
  end
end


* xyz 0 1
  C                    3.011465             -1.180584            0.598299            
  O                    4.394831             -1.127737            0.874115            
  H                    4.772038             -0.379335            0.412686            
  H                    2.806592             -1.318652            -0.469543           
  H                    2.611790             -2.039952            1.135705            
  H                    2.484915             -0.284178            0.945466            
*
