#Run DFT geometry optimization
! wB97X-D3 def2-TZVP TIGHTSCF Grid5 FinalGrid6 Opt CHELPG PAL4

%base "geoopt"

%geom MaxIter 500
end

%scf
MaxIter 1000
end

%output
  Print[ P_Mayer ] 1
  Print[ P_NatPop ] 1
  Print[ P_Hirshfeld ] 1
  Print[ P_Mulliken ] 1
  Print [ P_Loewdin ] 1
end

* xyz 0 1
  C                    3.011308             -1.180897            0.598492            
  O                    4.394673             -1.128050            0.874308            
  H                    4.772196             -0.379022            0.412493            
  H                    2.806434             -1.318965            -0.469350           
  H                    2.611632             -2.040265            1.135898            
  H                    2.484757             -0.284491            0.945659            
*
