#Run DFT geometry optimization
! wB97X-D3 def2-TZVP TIGHTSCF Grid5 FinalGrid6 Opt CHELPG PAL4

%base "10_geo_opt"
%geom MaxIter 500
end

%geom
  Constraints
    { B 0 1 C }
  end
end


* xyz 0 1
  C                    3.011798             -1.180878            0.598590            
  O                    4.394183             -1.128069            0.874210            
  H                    4.771706             -0.379041            0.412395            
  H                    2.806924             -1.318946            -0.469252           
  H                    2.612122             -2.040246            1.135996            
  H                    2.485247             -0.284472            0.945757            
*
