     # Non-bonded interactions (pair-wise)
     pair_coeff           1          1          lj/cut/coul/long      0.024470             2.445635            
     pair_coeff           1          2          lj/cut/coul/long      0.018597             2.443774            
     pair_coeff           1          3          lj/cut/coul/long      0.015535             2.415924            
     pair_coeff           1          4          lj/cut/coul/long      0.004938             2.422778            
     pair_coeff           1          5          lj/cut/coul/long      0.039399             3.057702            
     pair_coeff           1          6          lj/cut/coul/long      0.040139             3.084891            
     pair_coeff           1          7          lj/cut/coul/long      0.040845             3.080264            
     pair_coeff           1          8          lj/cut/coul/long      0.045743             2.945860            
     pair_coeff           2          2          lj/cut/coul/long      0.014134             2.441906            
     pair_coeff           2          3          lj/cut/coul/long      0.011811             2.413945            
     pair_coeff           2          4          lj/cut/coul/long      0.003754             2.420827            
     pair_coeff           2          5          lj/cut/coul/long      0.029842             3.057094            
     pair_coeff           2          6          lj/cut/coul/long      0.030400             3.084309            
     pair_coeff           2          7          lj/cut/coul/long      0.030936             3.079677            
     pair_coeff           2          8          lj/cut/coul/long      0.034658             2.945127            
     pair_coeff           3          3          lj/cut/coul/long      0.009920             2.384265            
     pair_coeff           3          4          lj/cut/coul/long      0.003149             2.391582            
     pair_coeff           3          5          lj/cut/coul/long      0.023683             3.048194            
     pair_coeff           3          6          lj/cut/coul/long      0.024104             3.075798            
     pair_coeff           3          7          lj/cut/coul/long      0.024532             3.071102            
     pair_coeff           3          8          lj/cut/coul/long      0.027627             2.934382            
     pair_coeff           4          4          lj/cut/coul/long      0.001000             2.398789            
     pair_coeff           4          5          lj/cut/coul/long      0.007625             3.050349            
     pair_coeff           4          6          lj/cut/coul/long      0.007762             3.077859            
     pair_coeff           4          7          lj/cut/coul/long      0.007900             3.073178            
     pair_coeff           4          8          lj/cut/coul/long      0.008885             2.936987            
     pair_coeff           5          5          lj/cut/coul/long      0.139401             3.352830            
     pair_coeff           5          6          lj/cut/coul/long      0.145207             3.370143            
     pair_coeff           5          7          lj/cut/coul/long      0.147213             3.367174            
     pair_coeff           5          8          lj/cut/coul/long      0.146283             3.285091            
     pair_coeff           6          6          lj/cut/coul/long      0.151394             3.387022            
     pair_coeff           6          7          lj/cut/coul/long      0.153462             3.384126            
     pair_coeff           6          8          lj/cut/coul/long      0.151773             3.304232            
     pair_coeff           7          7          lj/cut/coul/long      0.155562             3.381218            
     pair_coeff           7          8          lj/cut/coul/long      0.153973             3.300953            
     pair_coeff           8          8          lj/cut/coul/long      0.156154             3.209550            

     # Stretching interactions
     bond_coeff           1           377.846244           1.093155            
     bond_coeff           2           369.869867           1.094423            
     bond_coeff           3           361.827814           1.098361            
     bond_coeff           4           499.771904           1.013403            
     bond_coeff           5           316.193421           1.523229            
     bond_coeff           6           276.479692           1.531204            
     bond_coeff           7           333.154639           1.460991            

     # Bending interactions
     angle_coeff          1           41.552646            107.471780          
     angle_coeff          2           43.036920            110.866477          
     angle_coeff          3           40.848241            106.445984          
     angle_coeff          4           57.655974            109.035254          
     angle_coeff          5           56.529504            108.503944          
     angle_coeff          6           59.152170            107.609018          
     angle_coeff          7           69.508997            106.242918          
     angle_coeff          8           44.669364            107.012087          
     angle_coeff          9           30.894020            107.333598          
     angle_coeff          10          83.103100            114.369960          
     angle_coeff          11          67.294409            110.841337          
     angle_coeff          12          89.694236            113.844520          

     # Dihedral interactions
     dihedral_coeff       1          opls                 -0.029758             0.083160             0.701871            -0.046439            
     dihedral_coeff       2          opls                  0.015443            -0.007792            -0.573108             0.128184            
     dihedral_coeff       3          opls                  0.512270             0.166756             0.769949            -0.229903            
     dihedral_coeff       4          opls                  0.347327             0.689871             0.473544            -0.237370            
     dihedral_coeff       5          opls                 -0.922050            -0.430987             0.697484            -0.411000            
     dihedral_coeff       6          opls                 -0.945142            -0.532134             0.185901             0.372064            
     dihedral_coeff       7          opls                 -0.163260             0.519284             0.241603             0.331242            
     dihedral_coeff       8          opls                  0.172442            -0.540689             0.335221             0.269709            
     dihedral_coeff       9          opls                 -0.904090             0.138760             0.239236             0.379347            
     dihedral_coeff       10         opls                  1.527369            -1.164615            -0.247632             0.169931            
