#Run DFT geometry optimization
! wB97X-D3 def2-TZVP TIGHTSCF Grid5 FinalGrid6 Opt CHELPG PAL4

%base "6_geo_opt"
%geom MaxIter 500
end

%geom
  Constraints
    { B 0 1 C }
  end
end


* xyz 0 1
  C                    3.011406             -1.180893            0.598511            
  O                    4.394575             -1.128054            0.874288            
  H                    4.772098             -0.379026            0.412474            
  H                    2.806532             -1.318961            -0.469330           
  H                    2.611730             -2.040261            1.135918            
  H                    2.484855             -0.284487            0.945678            
*
