#Run DFT-D3 single point of the dimer
! wB97X-D3 def2-TZVP TIGHTSCF  CHELPG PAL8

%base "45_charges"

%scf
MaxIter 1000
end
%output
  Print[ P_Mayer ] 1
  Print[ P_NatPop ] 1
  Print[ P_Hirshfeld ] 1
  Print[ P_Mulliken ] 1
  Print [ P_Loewdin ] 1
end

* xyz 0 1
  C                      8.824784             7.580124             4.204947            
  O                      8.778719             7.824527             2.733379            
  H                      8.324615             8.679605             2.708276            
  H                      7.882122             7.172702             4.582085            
  H                      9.611679             6.982661             4.496689            
  H                      9.031327             8.561884             4.760092            
*
