     # Non-bonded interactions (pair-wise)
     pair_coeff           1          1          lj/cut/coul/long      0.024470             2.445635            
     pair_coeff           1          2          lj/cut/coul/long      0.018597             2.443774            
     pair_coeff           1          3          lj/cut/coul/long      0.012785             2.469714            
     pair_coeff           1          4          lj/cut/coul/long      0.004938             2.422778            
     pair_coeff           1          5          lj/cut/coul/long      0.039399             3.057702            
     pair_coeff           1          6          lj/cut/coul/long      0.044183             3.073661            
     pair_coeff           1          7          lj/cut/coul/long      0.041294             3.121805            
     pair_coeff           1          8          lj/cut/coul/long      0.050936             2.918065            
     pair_coeff           2          2          lj/cut/coul/long      0.014134             2.441906            
     pair_coeff           2          3          lj/cut/coul/long      0.009714             2.467942            
     pair_coeff           2          4          lj/cut/coul/long      0.003754             2.420827            
     pair_coeff           2          5          lj/cut/coul/long      0.029842             3.057094            
     pair_coeff           2          6          lj/cut/coul/long      0.033464             3.073068            
     pair_coeff           2          7          lj/cut/coul/long      0.031273             3.121257            
     pair_coeff           2          8          lj/cut/coul/long      0.038595             2.917297            
     pair_coeff           3          3          lj/cut/coul/long      0.006702             2.492673            
     pair_coeff           3          4          lj/cut/coul/long      0.002572             2.447979            
     pair_coeff           3          5          lj/cut/coul/long      0.021491             3.065727            
     pair_coeff           3          6          lj/cut/coul/long      0.024112             3.081482            
     pair_coeff           3          7          lj/cut/coul/long      0.022566             3.129046            
     pair_coeff           3          8          lj/cut/coul/long      0.027645             2.928182            
     pair_coeff           4          4          lj/cut/coul/long      0.001000             2.398789            
     pair_coeff           4          5          lj/cut/coul/long      0.007625             3.050349            
     pair_coeff           4          6          lj/cut/coul/long      0.008547             3.066498            
     pair_coeff           4          7          lj/cut/coul/long      0.007978             3.115182            
     pair_coeff           4          8          lj/cut/coul/long      0.009904             2.908758            
     pair_coeff           5          5          lj/cut/coul/long      0.139401             3.352830            
     pair_coeff           5          6          lj/cut/coul/long      0.158395             3.362953            
     pair_coeff           5          7          lj/cut/coul/long      0.153746             3.394154            
     pair_coeff           5          8          lj/cut/coul/long      0.158436             3.269157            
     pair_coeff           6          6          lj/cut/coul/long      0.180034             3.372926            
     pair_coeff           6          7          lj/cut/coul/long      0.174916             3.403681            
     pair_coeff           6          8          lj/cut/coul/long      0.179496             3.280630            
     pair_coeff           7          7          lj/cut/coul/long      0.170423             3.433106            
     pair_coeff           7          8          lj/cut/coul/long      0.172735             3.315819            
     pair_coeff           8          8          lj/cut/coul/long      0.185030             3.173168            

     # Stretching interactions
     bond_coeff           1           377.846244           1.093155            
     bond_coeff           2           367.946104           1.096149            
     bond_coeff           3           371.202508           1.094644            
     bond_coeff           4           509.552153           1.010306            
     bond_coeff           5           314.250124           1.524618            
     bond_coeff           6           309.329851           1.520697            
     bond_coeff           7           349.490365           1.459222            

     # Bending interactions
     angle_coeff          1           41.552646            107.471780          
     angle_coeff          2           43.019729            110.857555          
     angle_coeff          3           42.858309            106.287005          
     angle_coeff          4           49.551876            109.621163          
     angle_coeff          5           46.286932            108.480362          
     angle_coeff          6           42.430130            106.566148          
     angle_coeff          7           48.664691            109.303683          
     angle_coeff          8           59.636712            107.627172          
     angle_coeff          9           44.566367            107.474783          
     angle_coeff          10          35.379859            111.415199          
     angle_coeff          11          56.839333            113.123187          
     angle_coeff          12          68.467561            110.770474          

     # Dihedral interactions
     dihedral_coeff       1          opls                 -0.012504             0.007532             0.259247            -0.034312            
     dihedral_coeff       2          opls                 -0.093646            -0.149439             0.370392            -0.043415            
     dihedral_coeff       3          opls                  1.238492             0.100114             0.219020             0.086528            
     dihedral_coeff       4          opls                 -0.082460             0.572897             0.486650             0.182346            
     dihedral_coeff       5          opls                 -2.516627            -0.783641             0.449360            -0.024769            
     dihedral_coeff       6          opls                 -0.095873             0.068190             0.411971             0.016949            
     dihedral_coeff       7          opls                  0.056602            -0.307791             0.171630            -0.028288            
     dihedral_coeff       8          opls                 -0.153149            -1.100166             1.079126            -0.089041            
