     # Non-bonded interactions (pair-wise)
     pair_coeff           1          1          lj/cut/coul/long      0.280833             3.414637            
     pair_coeff           1          2          lj/cut/coul/long      0.022870             3.111884            
     pair_coeff           1          3          lj/cut/coul/long      0.053669             3.106976            
     pair_coeff           1          4          lj/cut/coul/long      0.040646             3.106414            
     pair_coeff           1          5          lj/cut/coul/long      0.209673             3.426844            
     pair_coeff           1          6          lj/cut/coul/long      0.236291             3.420673            
     pair_coeff           1          7          lj/cut/coul/long      0.197563             3.384439            
     pair_coeff           1          8          lj/cut/coul/long      0.206674             3.391078            
     pair_coeff           2          2          lj/cut/coul/long      0.004193             2.477211            
     pair_coeff           2          3          lj/cut/coul/long      0.010122             2.461676            
     pair_coeff           2          4          lj/cut/coul/long      0.007691             2.459875            
     pair_coeff           2          5          lj/cut/coul/long      0.016810             3.131175            
     pair_coeff           2          6          lj/cut/coul/long      0.019093             3.121454            
     pair_coeff           2          7          lj/cut/coul/long      0.016773             3.063016            
     pair_coeff           2          8          lj/cut/coul/long      0.017380             3.073908            
     pair_coeff           3          3          lj/cut/coul/long      0.024470             2.445635            
     pair_coeff           3          4          lj/cut/coul/long      0.018597             2.443774            
     pair_coeff           3          5          lj/cut/coul/long      0.039433             3.126417            
     pair_coeff           3          6          lj/cut/coul/long      0.044797             3.116621            
     pair_coeff           3          7          lj/cut/coul/long      0.039399             3.057702            
     pair_coeff           3          8          lj/cut/coul/long      0.040816             3.068688            
     pair_coeff           4          4          lj/cut/coul/long      0.014134             2.441906            
     pair_coeff           4          5          lj/cut/coul/long      0.029864             3.125872            
     pair_coeff           4          6          lj/cut/coul/long      0.033926             3.116068            
     pair_coeff           4          7          lj/cut/coul/long      0.029842             3.057094            
     pair_coeff           4          8          lj/cut/coul/long      0.030915             3.068090            
     pair_coeff           5          5          lj/cut/coul/long      0.156615             3.438837            
     pair_coeff           5          6          lj/cut/coul/long      0.176457             3.432774            
     pair_coeff           5          7          lj/cut/coul/long      0.147332             3.397194            
     pair_coeff           5          8          lj/cut/coul/long      0.154167             3.403710            
     pair_coeff           6          6          lj/cut/coul/long      0.198836             3.426656            
     pair_coeff           6          7          lj/cut/coul/long      0.166132             3.390747            
     pair_coeff           6          8          lj/cut/coul/long      0.173816             3.397326            
     pair_coeff           7          7          lj/cut/coul/long      0.139401             3.352830            
     pair_coeff           7          8          lj/cut/coul/long      0.145731             3.359787            
     pair_coeff           8          8          lj/cut/coul/long      0.152372             3.366672            

     # Stretching interactions
     bond_coeff           1           227.429946           1.787734            
     bond_coeff           2           378.271638           1.089546            
     bond_coeff           3           377.846244           1.093155            
     bond_coeff           4           376.965084           1.093865            
     bond_coeff           5           368.488176           1.095580            
     bond_coeff           6           315.688677           1.514466            
     bond_coeff           7           304.938600           1.524951            
     bond_coeff           8           313.531893           1.522660            

     # Bending interactions
     angle_coeff          1           51.478389            106.670538          
     angle_coeff          2           71.124906            112.150071          
     angle_coeff          3           40.989711            108.620483          
     angle_coeff          4           41.996703            111.083674          
     angle_coeff          5           41.552646            107.471780          
     angle_coeff          6           43.036920            110.866477          
     angle_coeff          7           42.627517            106.686353          
     angle_coeff          8           48.101040            108.798083          
     angle_coeff          9           45.319016            109.664118          
     angle_coeff          10          43.628825            106.010166          
     angle_coeff          11          44.485363            109.047554          
     angle_coeff          12          45.160055            109.784102          
     angle_coeff          13          55.362661            112.806944          
     angle_coeff          14          55.655698            111.538094          

     # Dihedral interactions
     dihedral_coeff       1          opls                 -0.116036            -0.116253             0.790373             0.337077            
     dihedral_coeff       2          opls                 -0.030291            -0.991446             0.864976            -0.049336            
     dihedral_coeff       3          opls                 -0.029053             0.161670             0.204264             0.033852            
     dihedral_coeff       4          opls                 -0.103502            -0.051435             0.291474            -0.442887            
     dihedral_coeff       5          opls                  0.120045            -0.042386             0.226783            -0.014429            
     dihedral_coeff       6          opls                 -0.249742            -0.055456             0.490675            -0.030340            
     dihedral_coeff       7          opls                  0.168119            -0.999066             0.340152            -0.182866            
     dihedral_coeff       8          opls                 -0.316447             0.682458             0.641000             0.590520            
     dihedral_coeff       9          opls                 -0.345385             0.617016             0.062824            -0.608830            
     dihedral_coeff       10         opls                  0.243346             1.586623             0.346331            -0.068214            
