#Run DFT geometry optimization
! wB97X-D3 def2-TZVP TIGHTSCF Grid5 FinalGrid6 Opt CHELPG PAL4

%base "8_geo_opt"
%geom MaxIter 500
end

%geom
  Constraints
    { B 0 1 C }
  end
end


* xyz 0 1
  C                    3.011602             -1.180886            0.598550            
  O                    4.394379             -1.128061            0.874249            
  H                    4.771902             -0.379033            0.412434            
  H                    2.806728             -1.318954            -0.469291           
  H                    2.611926             -2.040254            1.135957            
  H                    2.485051             -0.284480            0.945718            
*
