#Run DFT-D3 single point of the dimer
! wB97X-D3 def2-TZVP TIGHTSCF CHELPG PMODEL PAL8

%base "1-16_DFT_AB"

%scf
MaxIter 1000
end

* xyz 0 1
  C                      -2.881200            5.269052             1.066537            
  O                      -2.445104            4.075524             0.341486            
  H                      -2.756895            4.205874             -0.534556           
  H                      -3.832270            5.165989             1.402556            
  H                      -2.191036            5.618454             1.900053            
  H                      -2.957396            6.094008             0.292697            
  C                      -7.546642            5.310844             -2.485952           
  O                      -6.537382            4.702897             -1.704250           
  H                      -6.634103            3.799627             -2.072274           
  H                      -7.343214            5.297082             -3.570693           
  H                      -8.497672            4.889586             -2.433377           
  H                      -7.670592            6.410111             -2.234567           
*

#Run DFT-D3 single point of the molecule with dimer basis set
$new_job
%base "1-16_DFT_A"
! wB97X-D3 def2-TZVP TIGHTSCF CHELPG PMODEL

%scf
MaxIter 1000
end

* xyz 0 1
  C                      -2.881200            5.269052             1.066537            
  O                      -2.445104            4.075524             0.341486            
  H                      -2.756895            4.205874             -0.534556           
  H                      -3.832270            5.165989             1.402556            
  H                      -2.191036            5.618454             1.900053            
  H                      -2.957396            6.094008             0.292697            
  C                    : -7.546642            5.310844             -2.485952           
  O                    : -6.537382            4.702897             -1.704250           
  H                    : -6.634103            3.799627             -2.072274           
  H                    : -7.343214            5.297082             -3.570693           
  H                    : -8.497672            4.889586             -2.433377           
  H                    : -7.670592            6.410111             -2.234567           
*

#Run DFT-D3 single point of the particle with dimer basis set
$new_job
%base "1-16_DFT_B"
! wB97X-D3 def2-TZVP TIGHTSCF CHELPG PMODEL

%scf
MaxIter 1000
end

* xyz 0 1
  C                    : -2.881200            5.269052             1.066537            
  O                    : -2.445104            4.075524             0.341486            
  H                    : -2.756895            4.205874             -0.534556           
  H                    : -3.832270            5.165989             1.402556            
  H                    : -2.191036            5.618454             1.900053            
  H                    : -2.957396            6.094008             0.292697            
  C                      -7.546642            5.310844             -2.485952           
  O                      -6.537382            4.702897             -1.704250           
  H                      -6.634103            3.799627             -2.072274           
  H                      -7.343214            5.297082             -3.570693           
  H                      -8.497672            4.889586             -2.433377           
  H                      -7.670592            6.410111             -2.234567           
*
