#Run DFT-D3 single point of the dimer
! wB97X-D3 def2-TZVP TIGHTSCF CHELPG PMODEL PAL8

%base "20-19_DFT_AB"

%scf
MaxIter 1000
end

* xyz 0 1
  C                      -3.541612            8.218738             -6.097579           
  O                      -2.500026            7.841059             -5.165467           
  H                      -2.808424            8.091062             -4.276652           
  H                      -4.504519            8.175344             -5.636522           
  H                      -3.270904            9.255707             -6.480989           
  H                      -3.586497            7.616042             -6.948879           
  C                      -1.844517            7.549200             -9.476446           
  O                      -1.036996            7.131007             -8.381999           
  H                      -0.835735            6.198937             -8.380334           
  H                      -1.412930            7.143828             -10.437911          
  H                      -2.886758            7.176697             -9.499812           
  H                      -1.964546            8.643857             -9.423512           
*

#Run DFT-D3 single point of the molecule with dimer basis set
$new_job
%base "20-19_DFT_A"
! wB97X-D3 def2-TZVP TIGHTSCF CHELPG PMODEL

%scf
MaxIter 1000
end

* xyz 0 1
  C                      -3.541612            8.218738             -6.097579           
  O                      -2.500026            7.841059             -5.165467           
  H                      -2.808424            8.091062             -4.276652           
  H                      -4.504519            8.175344             -5.636522           
  H                      -3.270904            9.255707             -6.480989           
  H                      -3.586497            7.616042             -6.948879           
  C                    : -1.844517            7.549200             -9.476446           
  O                    : -1.036996            7.131007             -8.381999           
  H                    : -0.835735            6.198937             -8.380334           
  H                    : -1.412930            7.143828             -10.437911          
  H                    : -2.886758            7.176697             -9.499812           
  H                    : -1.964546            8.643857             -9.423512           
*

#Run DFT-D3 single point of the particle with dimer basis set
$new_job
%base "20-19_DFT_B"
! wB97X-D3 def2-TZVP TIGHTSCF CHELPG PMODEL

%scf
MaxIter 1000
end

* xyz 0 1
  C                    : -3.541612            8.218738             -6.097579           
  O                    : -2.500026            7.841059             -5.165467           
  H                    : -2.808424            8.091062             -4.276652           
  H                    : -4.504519            8.175344             -5.636522           
  H                    : -3.270904            9.255707             -6.480989           
  H                    : -3.586497            7.616042             -6.948879           
  C                      -1.844517            7.549200             -9.476446           
  O                      -1.036996            7.131007             -8.381999           
  H                      -0.835735            6.198937             -8.380334           
  H                      -1.412930            7.143828             -10.437911          
  H                      -2.886758            7.176697             -9.499812           
  H                      -1.964546            8.643857             -9.423512           
*
