#Run DFT-D3 single point of the dimer
! wB97X-D3 def2-TZVP TIGHTSCF CHELPG PMODEL PAL8

%base "18-61_DFT_AB"

%scf
MaxIter 1000
end

* xyz 0 1
  C                      1.360282             -4.777872            -0.154041           
  O                      0.112124             -4.454516            0.466890            
  H                      0.255263             -3.645348            0.929075            
  H                      1.579164             -4.006664            -0.829384           
  H                      2.089112             -4.804114            0.602860            
  H                      1.466500             -5.741228            -0.685839           
  C                      0.218613             -3.774525            -3.429401           
  O                      -0.607822            -3.042870            -4.238015           
  H                      -0.933965            -3.609689            -4.932141           
  H                      0.524269             -3.125596            -2.622507           
  H                      -0.271415            -4.676162            -3.031674           
  H                      1.146558             -4.186064            -3.897141           
*

#Run DFT-D3 single point of the molecule with dimer basis set
$new_job
%base "18-61_DFT_A"
! wB97X-D3 def2-TZVP TIGHTSCF CHELPG PMODEL

%scf
MaxIter 1000
end

* xyz 0 1
  C                      1.360282             -4.777872            -0.154041           
  O                      0.112124             -4.454516            0.466890            
  H                      0.255263             -3.645348            0.929075            
  H                      1.579164             -4.006664            -0.829384           
  H                      2.089112             -4.804114            0.602860            
  H                      1.466500             -5.741228            -0.685839           
  C                    : 0.218613             -3.774525            -3.429401           
  O                    : -0.607822            -3.042870            -4.238015           
  H                    : -0.933965            -3.609689            -4.932141           
  H                    : 0.524269             -3.125596            -2.622507           
  H                    : -0.271415            -4.676162            -3.031674           
  H                    : 1.146558             -4.186064            -3.897141           
*

#Run DFT-D3 single point of the particle with dimer basis set
$new_job
%base "18-61_DFT_B"
! wB97X-D3 def2-TZVP TIGHTSCF CHELPG PMODEL

%scf
MaxIter 1000
end

* xyz 0 1
  C                    : 1.360282             -4.777872            -0.154041           
  O                    : 0.112124             -4.454516            0.466890            
  H                    : 0.255263             -3.645348            0.929075            
  H                    : 1.579164             -4.006664            -0.829384           
  H                    : 2.089112             -4.804114            0.602860            
  H                    : 1.466500             -5.741228            -0.685839           
  C                      0.218613             -3.774525            -3.429401           
  O                      -0.607822            -3.042870            -4.238015           
  H                      -0.933965            -3.609689            -4.932141           
  H                      0.524269             -3.125596            -2.622507           
  H                      -0.271415            -4.676162            -3.031674           
  H                      1.146558             -4.186064            -3.897141           
*
