#Run DFT-D3 single point of the dimer
! wB97X-D3 def2-TZVP TIGHTSCF CHELPG PMODEL PAL8

%base "3-27_DFT_AB"

%scf
MaxIter 1000
end

* xyz 0 1
  C                      -1.479890            -2.782146            -10.347695          
  O                      -2.119262            -3.328411            -11.446586          
  H                      -1.445049            -3.506653            -12.123038          
  H                      -2.045989            -2.790401            -9.457301           
  H                      -0.487859            -3.274771            -10.077993          
  H                      -1.208709            -1.733125            -10.415487          
  C                      -0.791894            0.153209             -7.293953           
  O                      -0.429146            0.665434             -6.098540           
  H                      -0.963668            0.273240             -5.400980           
  H                      -1.837251            0.451589             -7.599444           
  H                      -0.115426            0.306201             -8.126156           
  H                      -0.855482            -0.922665            -7.269317           
*

#Run DFT-D3 single point of the molecule with dimer basis set
$new_job
%base "3-27_DFT_A"
! wB97X-D3 def2-TZVP TIGHTSCF CHELPG PMODEL

%scf
MaxIter 1000
end

* xyz 0 1
  C                      -1.479890            -2.782146            -10.347695          
  O                      -2.119262            -3.328411            -11.446586          
  H                      -1.445049            -3.506653            -12.123038          
  H                      -2.045989            -2.790401            -9.457301           
  H                      -0.487859            -3.274771            -10.077993          
  H                      -1.208709            -1.733125            -10.415487          
  C                    : -0.791894            0.153209             -7.293953           
  O                    : -0.429146            0.665434             -6.098540           
  H                    : -0.963668            0.273240             -5.400980           
  H                    : -1.837251            0.451589             -7.599444           
  H                    : -0.115426            0.306201             -8.126156           
  H                    : -0.855482            -0.922665            -7.269317           
*

#Run DFT-D3 single point of the particle with dimer basis set
$new_job
%base "3-27_DFT_B"
! wB97X-D3 def2-TZVP TIGHTSCF CHELPG PMODEL

%scf
MaxIter 1000
end

* xyz 0 1
  C                    : -1.479890            -2.782146            -10.347695          
  O                    : -2.119262            -3.328411            -11.446586          
  H                    : -1.445049            -3.506653            -12.123038          
  H                    : -2.045989            -2.790401            -9.457301           
  H                    : -0.487859            -3.274771            -10.077993          
  H                    : -1.208709            -1.733125            -10.415487          
  C                      -0.791894            0.153209             -7.293953           
  O                      -0.429146            0.665434             -6.098540           
  H                      -0.963668            0.273240             -5.400980           
  H                      -1.837251            0.451589             -7.599444           
  H                      -0.115426            0.306201             -8.126156           
  H                      -0.855482            -0.922665            -7.269317           
*
