#Run DFT-D3 single point of the dimer
! wB97X-D3 def2-TZVP TIGHTSCF  CHELPG PAL8

%base "40_charges"

%scf
MaxIter 1000
end
%output
  Print[ P_Mayer ] 1
  Print[ P_NatPop ] 1
  Print[ P_Hirshfeld ] 1
  Print[ P_Mulliken ] 1
  Print [ P_Loewdin ] 1
end

* xyz 0 1
  C                      7.481525             1.630705             -9.706942           
  O                      7.305832             2.892107             -10.315881          
  H                      7.918083             3.487517             -9.913062           
  H                      7.539194             1.611494             -8.580569           
  H                      6.676496             0.997205             -9.958592           
  H                      8.437238             1.157887             -9.923243           
*
