     # Non-bonded interactions (pair-wise)
     pair_coeff           1          1          lj/cut/coul/long      0.379019             3.527685            
     pair_coeff           1          2          lj/cut/coul/long      0.022587             3.201593            
     pair_coeff           1          3          lj/cut/coul/long      0.023971             3.205953            
     pair_coeff           1          4          lj/cut/coul/long      0.057764             3.198443            
     pair_coeff           1          5          lj/cut/coul/long      0.043740             3.197957            
     pair_coeff           1          6          lj/cut/coul/long      0.248855             3.483414            
     pair_coeff           1          7          lj/cut/coul/long      0.273345             3.500780            
     pair_coeff           1          8          lj/cut/coul/long      0.227212             3.445793            
     pair_coeff           1          9          lj/cut/coul/long      0.237975             3.451866            
     pair_coeff           2          2          lj/cut/coul/long      0.003574             2.469219            
     pair_coeff           2          3          lj/cut/coul/long      0.003681             2.484997            
     pair_coeff           2          4          lj/cut/coul/long      0.009348             2.457568            
     pair_coeff           2          5          lj/cut/coul/long      0.007103             2.455752            
     pair_coeff           2          6          lj/cut/coul/long      0.015813             3.127784            
     pair_coeff           2          7          lj/cut/coul/long      0.016917             3.157210            
     pair_coeff           2          8          lj/cut/coul/long      0.015378             3.061643            
     pair_coeff           2          9          lj/cut/coul/long      0.015933             3.072559            
     pair_coeff           3          3          lj/cut/coul/long      0.003796             2.500290            
     pair_coeff           3          4          lj/cut/coul/long      0.009617             2.473717            
     pair_coeff           3          5          lj/cut/coul/long      0.007306             2.471960            
     pair_coeff           3          6          lj/cut/coul/long      0.016762             3.132681            
     pair_coeff           3          7          lj/cut/coul/long      0.017942             3.161884            
     pair_coeff           3          8          lj/cut/coul/long      0.016280             3.067090            
     pair_coeff           3          9          lj/cut/coul/long      0.016872             3.077910            
     pair_coeff           4          4          lj/cut/coul/long      0.024470             2.445635            
     pair_coeff           4          5          lj/cut/coul/long      0.018597             2.443774            
     pair_coeff           4          6          lj/cut/coul/long      0.040476             3.124244            
     pair_coeff           4          7          lj/cut/coul/long      0.043287             3.153832            
     pair_coeff           4          8          lj/cut/coul/long      0.039399             3.057702            
     pair_coeff           4          9          lj/cut/coul/long      0.040816             3.068688            
     pair_coeff           5          5          lj/cut/coul/long      0.014134             2.441906            
     pair_coeff           5          6          lj/cut/coul/long      0.030654             3.123698            
     pair_coeff           5          7          lj/cut/coul/long      0.032781             3.153311            
     pair_coeff           5          8          lj/cut/coul/long      0.029842             3.057094            
     pair_coeff           5          9          lj/cut/coul/long      0.030915             3.068090            
     pair_coeff           6          6          lj/cut/coul/long      0.164411             3.436137            
     pair_coeff           6          7          lj/cut/coul/long      0.180139             3.454711            
     pair_coeff           6          8          lj/cut/coul/long      0.150981             3.395760            
     pair_coeff           6          9          lj/cut/coul/long      0.157980             3.402291            
     pair_coeff           7          7          lj/cut/coul/long      0.197571             3.472799            
     pair_coeff           7          8          lj/cut/coul/long      0.165038             3.415446            
     pair_coeff           7          9          lj/cut/coul/long      0.172757             3.421791            
     pair_coeff           8          8          lj/cut/coul/long      0.139401             3.352830            
     pair_coeff           8          9          lj/cut/coul/long      0.145731             3.359787            
     pair_coeff           9          9          lj/cut/coul/long      0.152372             3.366672            

     # Stretching interactions
     bond_coeff           1           311.312148           1.337490            
     bond_coeff           2           219.637965           1.817071            
     bond_coeff           3           379.439304           1.091278            
     bond_coeff           4           377.846244           1.093155            
     bond_coeff           5           371.195333           1.095124            
     bond_coeff           6           368.488176           1.095580            
     bond_coeff           7           308.594434           1.521271            
     bond_coeff           8           306.555663           1.523784            
     bond_coeff           9           313.531893           1.522660            

     # Bending interactions
     angle_coeff          1           45.043678            109.438116          
     angle_coeff          2           59.029133            109.674571          
     angle_coeff          3           52.424144            97.310469           
     angle_coeff          4           41.249544            108.392263          
     angle_coeff          5           42.955590            109.914796          
     angle_coeff          6           41.552646            107.471780          
     angle_coeff          7           43.036920            110.866477          
     angle_coeff          8           43.259493            106.447213          
     angle_coeff          9           46.866306            109.490491          
     angle_coeff          10          44.324419            109.309254          
     angle_coeff          11          43.628825            106.010166          
     angle_coeff          12          44.369657            109.038510          
     angle_coeff          13          45.160055            109.784102          
     angle_coeff          14          55.018294            112.845880          
     angle_coeff          15          55.959242            112.136710          

     # Dihedral interactions
     dihedral_coeff       1          opls                 -0.143273             0.730777             0.195289            -1.053009            
     dihedral_coeff       2          opls                 -0.104404             1.576898             0.219331            -0.573989            
     dihedral_coeff       3          opls                  0.159530             0.140811             0.491615            -0.084475            
     dihedral_coeff       4          opls                 -0.718648            -0.560105             0.371422            -0.068508            
     dihedral_coeff       5          opls                  0.046305            -1.026490             0.447254            -0.021915            
     dihedral_coeff       6          opls                 -0.085955             0.503892             0.468233             0.911205            
     dihedral_coeff       7          opls                  0.120045            -0.042386             0.226783            -0.014429            
     dihedral_coeff       8          opls                 -0.268924            -0.061707             0.486619            -0.018829            
     dihedral_coeff       9          opls                  0.102294            -1.151672             0.409996            -0.121564            
     dihedral_coeff       10         opls                 -0.200794             0.760329             0.575489             0.445022            
     dihedral_coeff       11         opls                 -0.229081             0.747561             0.101487            -0.500901            
     dihedral_coeff       12         opls                  0.009937             1.920500             0.233257            -0.171144            
