     # Non-bonded interactions (pair-wise)
     pair_coeff           1          1          lj/cut/coul/long      0.024470             2.445635            
     pair_coeff           1          2          lj/cut/coul/long      0.022842             2.461744            
     pair_coeff           1          3          lj/cut/coul/long      0.007296             2.506407            
     pair_coeff           1          4          lj/cut/coul/long      0.004947             2.446313            
     pair_coeff           1          5          lj/cut/coul/long      0.040775             3.119560            
     pair_coeff           1          6          lj/cut/coul/long      0.043327             3.026456            
     pair_coeff           1          7          lj/cut/coul/long      0.037587             3.139691            
     pair_coeff           1          8          lj/cut/coul/long      0.040456             3.089402            
     pair_coeff           1          9          lj/cut/coul/long      0.034451             2.731221            
     pair_coeff           2          2          lj/cut/coul/long      0.021355             2.477342            
     pair_coeff           2          3          lj/cut/coul/long      0.006847             2.520687            
     pair_coeff           2          4          lj/cut/coul/long      0.004618             2.462400            
     pair_coeff           2          5          lj/cut/coul/long      0.039227             3.124391            
     pair_coeff           2          6          lj/cut/coul/long      0.041605             3.032072            
     pair_coeff           2          7          lj/cut/coul/long      0.036173             3.144370            
     pair_coeff           2          8          lj/cut/coul/long      0.038898             3.094472            
     pair_coeff           2          9          lj/cut/coul/long      0.032773             2.740568            
     pair_coeff           3          3          lj/cut/coul/long      0.002217             2.560598            
     pair_coeff           3          4          lj/cut/coul/long      0.001475             2.507007            
     pair_coeff           3          5          lj/cut/coul/long      0.013586             3.138425            
     pair_coeff           3          6          lj/cut/coul/long      0.014335             3.048342            
     pair_coeff           3          7          lj/cut/coul/long      0.012541             3.157970            
     pair_coeff           3          8          lj/cut/coul/long      0.013451             3.109189            
     pair_coeff           3          9          lj/cut/coul/long      0.011002             2.767244            
     pair_coeff           4          4          lj/cut/coul/long      0.001000             2.446990            
     pair_coeff           4          5          lj/cut/coul/long      0.008253             3.119761            
     pair_coeff           4          6          lj/cut/coul/long      0.008769             3.026689            
     pair_coeff           4          7          lj/cut/coul/long      0.007608             3.139886            
     pair_coeff           4          8          lj/cut/coul/long      0.008189             3.089613            
     pair_coeff           4          9          lj/cut/coul/long      0.006970             2.731612            
     pair_coeff           5          5          lj/cut/coul/long      0.165549             3.430313            
     pair_coeff           5          6          lj/cut/coul/long      0.161891             3.374318            
     pair_coeff           5          7          lj/cut/coul/long      0.155158             3.442922            
     pair_coeff           5          8          lj/cut/coul/long      0.160079             3.411753            
     pair_coeff           5          9          lj/cut/coul/long      0.091417             3.223896            
     pair_coeff           6          6          lj/cut/coul/long      0.160038             3.313251            
     pair_coeff           6          7          lj/cut/coul/long      0.151387             3.387996            
     pair_coeff           6          8          lj/cut/coul/long      0.157081             3.354137            
     pair_coeff           6          9          lj/cut/coul/long      0.093789             3.146023            
     pair_coeff           7          7          lj/cut/coul/long      0.145488             3.455305            
     pair_coeff           7          8          lj/cut/coul/long      0.149923             3.424705            
     pair_coeff           7          9          lj/cut/coul/long      0.084846             3.241023            
     pair_coeff           8          8          lj/cut/coul/long      0.154959             3.392674            
     pair_coeff           8          9          lj/cut/coul/long      0.089736             3.198425            
     pair_coeff           9          9          lj/cut/coul/long      0.063383             2.917123            

     # Stretching interactions
     bond_coeff           1           384.226258           1.090916            
     bond_coeff           2           410.184519           1.081618            
     bond_coeff           3           352.582240           1.100892            
     bond_coeff           4           390.261910           1.088635            
     bond_coeff           5           327.528067           1.511076            
     bond_coeff           6           339.817891           1.418317            
     bond_coeff           7           708.479994           1.323998            
     bond_coeff           8           445.213557           1.349972            

     # Bending interactions
     angle_coeff          1           40.182835            108.640655          
     angle_coeff          2           39.852429            110.357159          
     angle_coeff          3           29.265471            119.447928          
     angle_coeff          4           32.495118            120.691682          
     angle_coeff          5           42.903844            107.041954          
     angle_coeff          6           44.237128            110.840886          
     angle_coeff          7           57.943682            109.581229          
     angle_coeff          8           33.374213            122.024330          
     angle_coeff          9           55.206395            114.841006          
     angle_coeff          10          65.816315            114.785444          
     angle_coeff          11          71.162472            109.023197          
     angle_coeff          12          67.798659            122.950723          

     # Dihedral interactions
     dihedral_coeff       1          opls                  0.217299             0.138478             0.223412             0.014708            
     dihedral_coeff       2          opls                 -0.321426            -0.326793             0.543629            -0.070479            
     dihedral_coeff       3          harmonic              4.419706            -1                    2                   
     dihedral_coeff       4          harmonic              8.614525            -1                    2                   
     dihedral_coeff       5          opls                 -0.067077             0.021768             0.935393            -0.289846            
     dihedral_coeff       6          opls                  1.187914             2.655192             0.584428             0.368584            
     dihedral_coeff       7          opls                 -2.160183             3.231406            -1.642621            -0.094974            
     dihedral_coeff       8          opls                 -0.934143             0.679572            -1.635580             0.162084            
