#Run DFT geometry optimization
! wB97X-D3 def2-TZVP TIGHTSCF Grid5 FinalGrid6 Opt CHELPG PAL4

%base "1_geo_opt"
%geom MaxIter 500
end

%geom
  Constraints
    { B 2 1 C }
  end
end


* xyz 0 1
  C                    3.011150             -1.181210            0.598685            
  O                    4.394515             -1.128363            0.874500            
  H                    4.772354             -0.378709            0.412300            
  H                    2.806277             -1.319278            -0.469157           
  H                    2.611474             -2.040578            1.136091            
  H                    2.484599             -0.284804            0.945852            
*
