     # Non-bonded interactions (pair-wise)
     pair_coeff           1          1          lj/cut/coul/long      0.024470             2.445635            
     pair_coeff           1          2          lj/cut/coul/long      0.015535             2.415924            
     pair_coeff           1          3          lj/cut/coul/long      0.004938             2.422778            
     pair_coeff           1          4          lj/cut/coul/long      0.045109             3.009975            
     pair_coeff           1          5          lj/cut/coul/long      0.038950             3.102798            
     pair_coeff           1          6          lj/cut/coul/long      0.045743             2.945860            
     pair_coeff           2          2          lj/cut/coul/long      0.009920             2.384265            
     pair_coeff           2          3          lj/cut/coul/long      0.003149             2.391582            
     pair_coeff           2          4          lj/cut/coul/long      0.027165             2.999681            
     pair_coeff           2          5          lj/cut/coul/long      0.023375             3.093967            
     pair_coeff           2          6          lj/cut/coul/long      0.027627             2.934382            
     pair_coeff           3          3          lj/cut/coul/long      0.001000             2.398789            
     pair_coeff           3          4          lj/cut/coul/long      0.008743             3.002016            
     pair_coeff           3          5          lj/cut/coul/long      0.007529             3.095968            
     pair_coeff           3          6          lj/cut/coul/long      0.008885             2.936987            
     pair_coeff           4          4          lj/cut/coul/long      0.168786             3.292244            
     pair_coeff           4          5          lj/cut/coul/long      0.156592             3.353391            
     pair_coeff           4          6          lj/cut/coul/long      0.161876             3.252211            
     pair_coeff           5          5          lj/cut/coul/long      0.146885             3.409424            
     pair_coeff           5          6          lj/cut/coul/long      0.148995             3.316996            
     pair_coeff           6          6          lj/cut/coul/long      0.156154             3.209550            

     # Stretching interactions
     bond_coeff           1           377.780519           1.092523            
     bond_coeff           2           365.291034           1.095686            
     bond_coeff           3           499.771904           1.013403            
     bond_coeff           4           294.239879           1.524686            
     bond_coeff           5           326.847293           1.458088            

     # Bending interactions
     angle_coeff          1           43.215261            107.986516          
     angle_coeff          2           21.054232            109.236714          
     angle_coeff          3           60.692758            108.197922          
     angle_coeff          4           67.682251            106.347260          
     angle_coeff          5           44.669364            107.012087          
     angle_coeff          6           35.363682            109.269362          
     angle_coeff          7           82.890628            111.318839          
     angle_coeff          8           92.048441            113.875643          

     # Dihedral interactions
     dihedral_coeff       1          opls                  0.493041            -0.142497             0.452501             0.015848            
     dihedral_coeff       2          opls                  0.087096             0.026863            -0.124742             0.036234            
     dihedral_coeff       3          opls                 -0.735374            -0.106580             0.870716            -0.075646            
     dihedral_coeff       4          opls                  0.450912            -0.458569             0.122382            -0.119252            
     dihedral_coeff       5          opls                 -0.126062             0.103948             0.474475            -0.202573            
