#Run DFT geometry optimization
! wB97X-D3 def2-TZVP TIGHTSCF Grid5 FinalGrid6 Opt CHELPG PAL4

%base "10_geo_opt"
%geom MaxIter 500
end

%geom
  Constraints
    { B 2 1 C }
  end
end


* xyz 0 1
  C                    3.011505             -1.180506            0.598251            
  O                    4.394870             -1.127659            0.874066            
  H                    4.771999             -0.379413            0.412734            
  H                    2.806631             -1.318574            -0.469591           
  H                    2.611829             -2.039874            1.135657            
  H                    2.484954             -0.284100            0.945418            
*
