     # Non-bonded interactions (pair-wise)
     pair_coeff           1          1          lj/cut/coul/long      0.260411             3.561665            
     pair_coeff           1          2          lj/cut/coul/long      0.009078             3.221357            
     pair_coeff           1          3          lj/cut/coul/long      0.252082             3.459166            
     pair_coeff           2          2          lj/cut/coul/long      0.001000             2.405138            
     pair_coeff           2          3          lj/cut/coul/long      0.010440             3.040057            
     pair_coeff           3          3          lj/cut/coul/long      0.253307             3.338764            

     # Stretching interactions
     bond_coeff           1           235.999102           1.764388            
     bond_coeff           2           396.194913           1.084668            

     # Bending interactions
     angle_coeff          1           78.278744            112.762761          
     angle_coeff          2           48.655594            108.195775          
     angle_coeff          3           37.899105            111.328154          

     # Dihedral interactions
