#Run DFT-D3 single point of the dimer
! wB97X-D3 def2-TZVP TIGHTSCF CHELPG PMODEL PAL8

%base "8-1_DFT_AB"

%scf
MaxIter 1000
end

* xyz 0 1
  C                      3.233414             -3.571402            3.480505            
  O                      2.255676             -2.570167            3.219103            
  H                      1.566001             -2.787145            3.844910            
  H                      2.766447             -4.558397            3.518261            
  H                      4.083400             -3.498807            2.869667            
  H                      3.649298             -3.340378            4.517966            
  C                      3.247449             0.489047             6.955197            
  O                      3.339960             1.502602             5.982111            
  H                      2.459960             1.640455             5.585835            
  H                      2.534463             0.868375             7.717436            
  H                      2.934831             -0.454493            6.529917            
  H                      4.259433             0.461948             7.314150            
*

#Run DFT-D3 single point of the molecule with dimer basis set
$new_job
%base "8-1_DFT_A"
! wB97X-D3 def2-TZVP TIGHTSCF CHELPG PMODEL

%scf
MaxIter 1000
end

* xyz 0 1
  C                      3.233414             -3.571402            3.480505            
  O                      2.255676             -2.570167            3.219103            
  H                      1.566001             -2.787145            3.844910            
  H                      2.766447             -4.558397            3.518261            
  H                      4.083400             -3.498807            2.869667            
  H                      3.649298             -3.340378            4.517966            
  C                    : 3.247449             0.489047             6.955197            
  O                    : 3.339960             1.502602             5.982111            
  H                    : 2.459960             1.640455             5.585835            
  H                    : 2.534463             0.868375             7.717436            
  H                    : 2.934831             -0.454493            6.529917            
  H                    : 4.259433             0.461948             7.314150            
*

#Run DFT-D3 single point of the particle with dimer basis set
$new_job
%base "8-1_DFT_B"
! wB97X-D3 def2-TZVP TIGHTSCF CHELPG PMODEL

%scf
MaxIter 1000
end

* xyz 0 1
  C                    : 3.233414             -3.571402            3.480505            
  O                    : 2.255676             -2.570167            3.219103            
  H                    : 1.566001             -2.787145            3.844910            
  H                    : 2.766447             -4.558397            3.518261            
  H                    : 4.083400             -3.498807            2.869667            
  H                    : 3.649298             -3.340378            4.517966            
  C                      3.247449             0.489047             6.955197            
  O                      3.339960             1.502602             5.982111            
  H                      2.459960             1.640455             5.585835            
  H                      2.534463             0.868375             7.717436            
  H                      2.934831             -0.454493            6.529917            
  H                      4.259433             0.461948             7.314150            
*
