     # Non-bonded interactions (pair-wise)
     pair_coeff           1          1          lj/cut/coul/long      0.008210             2.465609            
     pair_coeff           1          2          lj/cut/coul/long      0.003633             2.642819            
     pair_coeff           1          3          lj/cut/coul/long      0.027695             3.068956            
     pair_coeff           1          4          lj/cut/coul/long      0.021741             3.036089            
     pair_coeff           1          5          lj/cut/coul/long      0.020671             2.999079            
     pair_coeff           1          6          lj/cut/coul/long      0.047015             2.467084            
     pair_coeff           2          2          lj/cut/coul/long      0.001819             2.775138            
     pair_coeff           2          3          lj/cut/coul/long      0.016321             3.136211            
     pair_coeff           2          4          lj/cut/coul/long      0.012708             3.106819            
     pair_coeff           2          5          lj/cut/coul/long      0.011965             3.073967            
     pair_coeff           2          6          lj/cut/coul/long      0.020832             2.643862            
     pair_coeff           3          3          lj/cut/coul/long      0.200699             3.362875            
     pair_coeff           3          4          lj/cut/coul/long      0.153230             3.342308            
     pair_coeff           3          5          lj/cut/coul/long      0.140976             3.319726            
     pair_coeff           3          6          lj/cut/coul/long      0.159015             3.069450            
     pair_coeff           4          4          lj/cut/coul/long      0.117153             3.321088            
     pair_coeff           4          5          lj/cut/coul/long      0.107959             3.297759            
     pair_coeff           4          6          lj/cut/coul/long      0.124818             3.036611            
     pair_coeff           5          5          lj/cut/coul/long      0.099672             3.273575            
     pair_coeff           5          6          lj/cut/coul/long      0.118670             2.999634            
     pair_coeff           6          6          lj/cut/coul/long      0.269237             2.468555            

     # Stretching interactions
     bond_coeff           1           341.937780           1.105687            
     bond_coeff           2           349.189060           1.107021            
     bond_coeff           3           362.817565           1.446391            
     bond_coeff           4           507.052796           1.345028            
     bond_coeff           5           890.571713           1.210613            

     # Bending interactions
     angle_coeff          1           40.450011            108.151958          
     angle_coeff          2           56.520395            109.514833          
     angle_coeff          3           17.276394            108.492689          
     angle_coeff          4           59.802847            123.850399          
     angle_coeff          5           89.457394            119.625467          
     angle_coeff          6           40.601606            120.242422          
     angle_coeff          7           94.465208            125.460613          

     # Dihedral interactions
     dihedral_coeff       1          opls                  0.131574             0.067671            -0.096935            -0.016030            
     dihedral_coeff       2          opls                 -0.020412             0.072203            -0.454706            -0.025175            
     dihedral_coeff       3          opls                  0.015795             4.802281             1.200414            -0.773168            
     dihedral_coeff       4          opls                 -0.922913             4.725363            -0.409677            -0.467802            
