#Run DFT-D3 single point of the dimer
! wB97X-D3 def2-TZVP TIGHTSCF  CHELPG PAL8

%base "1_charges"

%scf
MaxIter 1000
end
%output
  Print[ P_Mayer ] 1
  Print[ P_NatPop ] 1
  Print[ P_Hirshfeld ] 1
  Print[ P_Mulliken ] 1
  Print [ P_Loewdin ] 1
end

* xyz 0 1
  C                      2.534369             -11.574455           6.413434            
  O                      3.218862             -11.865611           7.607966            
  H                      2.618041             -12.231765           8.221267            
  H                      1.485938             -11.368769           6.529485            
  H                      2.964330             -10.622359           6.062527            
  H                      2.598938             -12.301785           5.619829            
*
