#Run DFT-D3 single point of the dimer
! wB97X-D3 def2-TZVP TIGHTSCF CHELPG PMODEL PAL8

%base "2-29_DFT_AB"

%scf
MaxIter 1000
end

* xyz 0 1
  C                      5.916145             7.599752             -3.115480           
  O                      6.303187             6.405109             -3.797141           
  H                      6.313995             5.742929             -3.113214           
  H                      6.562852             7.866482             -2.246742           
  H                      5.963492             8.428625             -3.817606           
  H                      4.933177             7.588969             -2.693862           
  C                      8.250343             5.705359             -1.178994           
  O                      7.781973             4.399579             -0.935683           
  H                      6.990076             4.528335             -0.441139           
  H                      7.784217             6.542154             -0.621818           
  H                      9.292746             5.743374             -0.911809           
  H                      8.314528             5.887828             -2.257205           
*

#Run DFT-D3 single point of the molecule with dimer basis set
$new_job
%base "2-29_DFT_A"
! wB97X-D3 def2-TZVP TIGHTSCF CHELPG PMODEL

%scf
MaxIter 1000
end

* xyz 0 1
  C                      5.916145             7.599752             -3.115480           
  O                      6.303187             6.405109             -3.797141           
  H                      6.313995             5.742929             -3.113214           
  H                      6.562852             7.866482             -2.246742           
  H                      5.963492             8.428625             -3.817606           
  H                      4.933177             7.588969             -2.693862           
  C                    : 8.250343             5.705359             -1.178994           
  O                    : 7.781973             4.399579             -0.935683           
  H                    : 6.990076             4.528335             -0.441139           
  H                    : 7.784217             6.542154             -0.621818           
  H                    : 9.292746             5.743374             -0.911809           
  H                    : 8.314528             5.887828             -2.257205           
*

#Run DFT-D3 single point of the particle with dimer basis set
$new_job
%base "2-29_DFT_B"
! wB97X-D3 def2-TZVP TIGHTSCF CHELPG PMODEL

%scf
MaxIter 1000
end

* xyz 0 1
  C                    : 5.916145             7.599752             -3.115480           
  O                    : 6.303187             6.405109             -3.797141           
  H                    : 6.313995             5.742929             -3.113214           
  H                    : 6.562852             7.866482             -2.246742           
  H                    : 5.963492             8.428625             -3.817606           
  H                    : 4.933177             7.588969             -2.693862           
  C                      8.250343             5.705359             -1.178994           
  O                      7.781973             4.399579             -0.935683           
  H                      6.990076             4.528335             -0.441139           
  H                      7.784217             6.542154             -0.621818           
  H                      9.292746             5.743374             -0.911809           
  H                      8.314528             5.887828             -2.257205           
*
