     # Non-bonded interactions (pair-wise)
     pair_coeff           1          1          lj/cut/coul/long      0.024470             2.445635            
     pair_coeff           1          2          lj/cut/coul/long      0.018597             2.443774            
     pair_coeff           1          3          lj/cut/coul/long      0.007296             2.506407            
     pair_coeff           1          4          lj/cut/coul/long      0.040775             3.119560            
     pair_coeff           1          5          lj/cut/coul/long      0.027370             3.017030            
     pair_coeff           1          6          lj/cut/coul/long      0.037587             3.139691            
     pair_coeff           1          7          lj/cut/coul/long      0.017673             3.422071            
     pair_coeff           1          8          lj/cut/coul/long      0.032340             2.752394            
     pair_coeff           1          9          lj/cut/coul/long      0.064639             2.583449            
     pair_coeff           2          2          lj/cut/coul/long      0.014134             2.441906            
     pair_coeff           2          3          lj/cut/coul/long      0.005542             2.504762            
     pair_coeff           2          4          lj/cut/coul/long      0.030880             3.119009            
     pair_coeff           2          5          lj/cut/coul/long      0.020733             3.016380            
     pair_coeff           2          6          lj/cut/coul/long      0.028465             3.139159            
     pair_coeff           2          7          lj/cut/coul/long      0.013378             3.421725            
     pair_coeff           2          8          lj/cut/coul/long      0.024521             2.751364            
     pair_coeff           2          9          lj/cut/coul/long      0.049063             2.582035            
     pair_coeff           3          3          lj/cut/coul/long      0.002217             2.560598            
     pair_coeff           3          4          lj/cut/coul/long      0.013586             3.138425            
     pair_coeff           3          5          lj/cut/coul/long      0.009048             3.039253            
     pair_coeff           3          6          lj/cut/coul/long      0.012541             3.157970            
     pair_coeff           3          7          lj/cut/coul/long      0.005979             3.434024            
     pair_coeff           3          8          lj/cut/coul/long      0.010363             2.787103            
     pair_coeff           3          9          lj/cut/coul/long      0.020042             2.630431            
     pair_coeff           4          4          lj/cut/coul/long      0.165549             3.430313            
     pair_coeff           4          5          lj/cut/coul/long      0.101348             3.368868            
     pair_coeff           4          6          lj/cut/coul/long      0.155158             3.442922            
     pair_coeff           4          7          lj/cut/coul/long      0.088048             3.636768            
     pair_coeff           4          8          lj/cut/coul/long      0.088336             3.233248            
     pair_coeff           4          9          lj/cut/coul/long      0.137251             3.164893            
     pair_coeff           5          5          lj/cut/coul/long      0.062870             3.301248            
     pair_coeff           5          6          lj/cut/coul/long      0.094751             3.382655            
     pair_coeff           5          7          lj/cut/coul/long      0.052136             3.591514            
     pair_coeff           5          8          lj/cut/coul/long      0.056854             3.148957            
     pair_coeff           5          9          lj/cut/coul/long      0.090462             3.070194            
     pair_coeff           6          6          lj/cut/coul/long      0.145488             3.455305            
     pair_coeff           6          7          lj/cut/coul/long      0.083056             3.646207            
     pair_coeff           6          8          lj/cut/coul/long      0.082030             3.250133            
     pair_coeff           6          9          lj/cut/coul/long      0.126919             3.183648            
     pair_coeff           7          7          lj/cut/coul/long      0.051318             3.797263            
     pair_coeff           7          8          lj/cut/coul/long      0.041723             3.496341            
     pair_coeff           7          9          lj/cut/coul/long      0.061666             3.451047            
     pair_coeff           8          8          lj/cut/coul/long      0.057596             2.947390            
     pair_coeff           8          9          lj/cut/coul/long      0.099608             2.834024            
     pair_coeff           9          9          lj/cut/coul/long      0.185310             2.692064            

     # Stretching interactions
     bond_coeff           1           384.226258           1.090916            
     bond_coeff           2           385.920420           1.091065            
     bond_coeff           3           352.582240           1.100892            
     bond_coeff           4           327.528067           1.511076            
     bond_coeff           5           300.709160           1.432822            
     bond_coeff           6           309.717975           1.502127            
     bond_coeff           7           408.129170           1.339193            
     bond_coeff           8           927.867686           1.201242            

     # Bending interactions
     angle_coeff          1           40.182835            108.640655          
     angle_coeff          2           39.852429            110.357159          
     angle_coeff          3           47.253929            106.422988          
     angle_coeff          4           59.244037            106.917526          
     angle_coeff          5           42.903844            107.041954          
     angle_coeff          6           44.237128            110.840886          
     angle_coeff          7           57.874101            109.450535          
     angle_coeff          8           82.859113            114.305196          
     angle_coeff          9           129.401595           118.022131          
     angle_coeff          10          71.162472            109.023197          
     angle_coeff          11          70.546717            111.278970          
     angle_coeff          12          55.323192            125.548876          
     angle_coeff          13          104.695712           122.796564          

     # Dihedral interactions
     dihedral_coeff       1          opls                  0.217299             0.138478             0.223412             0.014708            
     dihedral_coeff       2          opls                 -0.354298            -0.327676             0.543085            -0.058369            
     dihedral_coeff       3          opls                 -3.326265             12.324001            9.440228            -1.061291            
     dihedral_coeff       4          opls                 -3.023431             9.135280             0.928705             6.862941            
     dihedral_coeff       5          opls                  0.724227            -0.110338             0.061298            -0.095325            
     dihedral_coeff       6          opls                 -0.589103             6.434357             0.268533            -0.774365            
     dihedral_coeff       7          opls                 -2.094251             6.470907            -1.521677             0.573943            
     dihedral_coeff       8          opls                 -3.522502             6.944872            -2.017016             10.802474           
     dihedral_coeff       9          opls                 -6.677412             13.100034            14.125535           -4.662563            
     dihedral_coeff       10         opls                 -1.321023             0.076120             0.290540            -0.101996            
