     # Non-bonded interactions (pair-wise)
     pair_coeff           1          1          lj/cut/coul/long      0.355531             3.491813            
     pair_coeff           1          2          lj/cut/coul/long      0.024274             3.175079            
     pair_coeff           1          3          lj/cut/coul/long      0.297512             3.481120            
     pair_coeff           2          2          lj/cut/coul/long      0.004059             2.486712            
     pair_coeff           2          3          lj/cut/coul/long      0.020608             3.157774            
     pair_coeff           3          3          lj/cut/coul/long      0.249047             3.470260            

     # Stretching interactions
     bond_coeff           1           240.152793           1.792897            
     bond_coeff           2           381.994848           1.090650            

     # Bending interactions
     angle_coeff          1           44.075059            107.939585          
     angle_coeff          2           39.161298            109.562311          
     angle_coeff          3           63.434994            98.031650           

     # Dihedral interactions
     dihedral_coeff       1          opls                  0.067501            -0.522985             0.630311            -0.204665            
