#Run DFT geometry optimization
! wB97X-D3 def2-TZVP TIGHTSCF Grid5 FinalGrid6 Opt CHELPG PAL4

%base "10_geo_opt"
%geom MaxIter 500
end

%geom
  Constraints
    { B 5 0 C }
  end
end


* xyz 0 1
  C                    3.011067             -1.180488            0.598650            
  O                    4.394433             -1.127641            0.874466            
  H                    4.771956             -0.378613            0.412651            
  H                    2.806194             -1.318556            -0.469191           
  H                    2.611392             -2.039856            1.136057            
  H                    2.484997             -0.284900            0.945501            
*
