#Run DFT geometry optimization
! wB97X-D3 def2-TZVP TIGHTSCF Grid5 FinalGrid6 Opt CHELPG PAL4

%base "4_geo_opt"
%geom MaxIter 500
end

%geom
  Constraints
    { B 5 0 C }
  end
end


* xyz 0 1
  C                    3.011356             -1.180979            0.598460            
  O                    4.394721             -1.128132            0.874276            
  H                    4.772244             -0.379104            0.412461            
  H                    2.806482             -1.319047            -0.469381           
  H                    2.611680             -2.040347            1.135867            
  H                    2.484709             -0.284409            0.945691            
*
