#Run DFT-D3 single point of the dimer
! wB97X-D3 def2-TZVP TIGHTSCF  CHELPG PAL8

%base "42_charges"

%scf
MaxIter 1000
end
%output
  Print[ P_Mayer ] 1
  Print[ P_NatPop ] 1
  Print[ P_Hirshfeld ] 1
  Print[ P_Mulliken ] 1
  Print [ P_Loewdin ] 1
end

* xyz 0 1
  C                      -2.785418            1.376403             -7.307056           
  O                      -2.626977            2.536526             -8.077893           
  H                      -3.532255            2.928424             -8.130873           
  H                      -1.854902            0.985404             -7.017220           
  H                      -3.258974            1.646841             -6.356756           
  H                      -3.421532            0.673767             -7.828351           
*
