     # Non-bonded interactions (pair-wise)
     pair_coeff           1          1          lj/cut/coul/long      0.024470             2.445635            
     pair_coeff           1          2          lj/cut/coul/long      0.047867             2.957437            
     pair_coeff           1          3          lj/cut/coul/long      0.034251             3.136686            
     pair_coeff           1          4          lj/cut/coul/long      0.062239             2.593225            
     pair_coeff           2          2          lj/cut/coul/long      0.174266             3.224604            
     pair_coeff           2          3          lj/cut/coul/long      0.141767             3.347680            
     pair_coeff           2          4          lj/cut/coul/long      0.152498             3.020399            
     pair_coeff           3          3          lj/cut/coul/long      0.120199             3.451581            
     pair_coeff           3          4          lj/cut/coul/long      0.113114             3.184323            
     pair_coeff           4          4          lj/cut/coul/long      0.173555             2.707894            

     # Stretching interactions
     bond_coeff           1           381.262285           1.092656            
     bond_coeff           2           297.003208           1.509849            
     bond_coeff           3           936.894696           1.205081            

     # Bending interactions
     angle_coeff          1           39.737939            107.011115          
     angle_coeff          2           34.439372            109.946543          
     angle_coeff          3           39.522648            116.135840          
     angle_coeff          4           70.947735            121.865339          

     # Dihedral interactions
     dihedral_coeff       1          opls                 -0.017418             0.409688            -0.341217             0.241846            
     dihedral_coeff       2          opls                 -0.185368             0.417734            -0.510309             0.481143            
