#Run DFT-D3 single point of the dimer
! wB97X-D3 def2-TZVP TIGHTSCF  CHELPG PAL8

%base "183_charges"

%scf
MaxIter 1000
end
%output
  Print[ P_Mayer ] 1
  Print[ P_NatPop ] 1
  Print[ P_Hirshfeld ] 1
  Print[ P_Mulliken ] 1
  Print [ P_Loewdin ] 1
end

* xyz 0 1
  C                      -3.982428            2.687221             2.515715            
  O                      -4.259339            1.608512             3.359579            
  H                      -3.679602            1.611278             4.144843            
  H                      -4.512307            2.521342             1.608537            
  H                      -4.241317            3.708854             2.909489            
  H                      -2.881701            2.589572             2.278494            
*
