#Run DFT-D3 single point of the dimer
! wB97X-D3 def2-TZVP TIGHTSCF CHELPG PMODEL PAL8

%base "15-43_DFT_AB"

%scf
MaxIter 1000
end

* xyz 0 1
  C                      7.027536             3.700445             1.588677            
  O                      7.121738             4.093266             0.247516            
  H                      7.366341             3.333908             -0.299382           
  H                      8.023769             3.471064             2.076743            
  H                      6.544191             4.464693             2.197487            
  H                      6.420623             2.848499             1.708700            
  C                      8.333353             5.513837             5.380126            
  O                      9.205957             5.227535             6.419786            
  H                      8.747401             5.686495             7.167722            
  H                      7.288762             5.499684             5.703675            
  H                      8.573081             6.488046             4.882362            
  H                      8.373617             4.670108             4.635545            
*

#Run DFT-D3 single point of the molecule with dimer basis set
$new_job
%base "15-43_DFT_A"
! wB97X-D3 def2-TZVP TIGHTSCF CHELPG PMODEL

%scf
MaxIter 1000
end

* xyz 0 1
  C                      7.027536             3.700445             1.588677            
  O                      7.121738             4.093266             0.247516            
  H                      7.366341             3.333908             -0.299382           
  H                      8.023769             3.471064             2.076743            
  H                      6.544191             4.464693             2.197487            
  H                      6.420623             2.848499             1.708700            
  C                    : 8.333353             5.513837             5.380126            
  O                    : 9.205957             5.227535             6.419786            
  H                    : 8.747401             5.686495             7.167722            
  H                    : 7.288762             5.499684             5.703675            
  H                    : 8.573081             6.488046             4.882362            
  H                    : 8.373617             4.670108             4.635545            
*

#Run DFT-D3 single point of the particle with dimer basis set
$new_job
%base "15-43_DFT_B"
! wB97X-D3 def2-TZVP TIGHTSCF CHELPG PMODEL

%scf
MaxIter 1000
end

* xyz 0 1
  C                    : 7.027536             3.700445             1.588677            
  O                    : 7.121738             4.093266             0.247516            
  H                    : 7.366341             3.333908             -0.299382           
  H                    : 8.023769             3.471064             2.076743            
  H                    : 6.544191             4.464693             2.197487            
  H                    : 6.420623             2.848499             1.708700            
  C                      8.333353             5.513837             5.380126            
  O                      9.205957             5.227535             6.419786            
  H                      8.747401             5.686495             7.167722            
  H                      7.288762             5.499684             5.703675            
  H                      8.573081             6.488046             4.882362            
  H                      8.373617             4.670108             4.635545            
*
