#Run DFT-D3 single point of the dimer
! wB97X-D3 def2-TZVP TIGHTSCF  CHELPG PAL8

%base "122_charges"

%scf
MaxIter 1000
end
%output
  Print[ P_Mayer ] 1
  Print[ P_NatPop ] 1
  Print[ P_Hirshfeld ] 1
  Print[ P_Mulliken ] 1
  Print [ P_Loewdin ] 1
end

* xyz 0 1
  C                      -9.540335            4.610023             -8.479556           
  O                      -10.154065           5.711114             -7.987363           
  H                      -10.097490           5.676836             -7.013232           
  H                      -8.796061            4.127908             -7.806466           
  H                      -10.310196           3.844959             -8.734153           
  H                      -8.992902            4.779835             -9.369920           
*
