#Run DFT-D3 single point of the dimer
! wB97X-D3 def2-TZVP TIGHTSCF CHELPG PMODEL PAL8

%base "19-91_DFT_AB"

%scf
MaxIter 1000
end

* xyz 0 1
  C                      1.790265             3.458561             8.299905            
  O                      0.760315             4.348827             7.951540            
  H                      0.700689             4.320397             6.985783            
  H                      2.747720             4.048782             8.453165            
  H                      1.540345             2.807398             9.173545            
  H                      2.017215             2.823354             7.489023            
  C                      2.133361             7.137426             6.794470            
  O                      3.422089             7.275639             7.377078            
  H                      3.459965             6.780640             8.178787            
  H                      2.011717             6.085576             6.397610            
  H                      1.310506             7.357630             7.547516            
  H                      2.139126             7.935520             6.013690            
*

#Run DFT-D3 single point of the molecule with dimer basis set
$new_job
%base "19-91_DFT_A"
! wB97X-D3 def2-TZVP TIGHTSCF CHELPG PMODEL

%scf
MaxIter 1000
end

* xyz 0 1
  C                      1.790265             3.458561             8.299905            
  O                      0.760315             4.348827             7.951540            
  H                      0.700689             4.320397             6.985783            
  H                      2.747720             4.048782             8.453165            
  H                      1.540345             2.807398             9.173545            
  H                      2.017215             2.823354             7.489023            
  C                    : 2.133361             7.137426             6.794470            
  O                    : 3.422089             7.275639             7.377078            
  H                    : 3.459965             6.780640             8.178787            
  H                    : 2.011717             6.085576             6.397610            
  H                    : 1.310506             7.357630             7.547516            
  H                    : 2.139126             7.935520             6.013690            
*

#Run DFT-D3 single point of the particle with dimer basis set
$new_job
%base "19-91_DFT_B"
! wB97X-D3 def2-TZVP TIGHTSCF CHELPG PMODEL

%scf
MaxIter 1000
end

* xyz 0 1
  C                    : 1.790265             3.458561             8.299905            
  O                    : 0.760315             4.348827             7.951540            
  H                    : 0.700689             4.320397             6.985783            
  H                    : 2.747720             4.048782             8.453165            
  H                    : 1.540345             2.807398             9.173545            
  H                    : 2.017215             2.823354             7.489023            
  C                      2.133361             7.137426             6.794470            
  O                      3.422089             7.275639             7.377078            
  H                      3.459965             6.780640             8.178787            
  H                      2.011717             6.085576             6.397610            
  H                      1.310506             7.357630             7.547516            
  H                      2.139126             7.935520             6.013690            
*
